%mem=24000MB
%nprocshared=12
# 6-31+g(d) scrf=(solvent=water,pcm) geom=connectivity
int=ultrafine m062x scf=tight

test

-1 1
 N                  0.00000000    0.00000000  -19.45716074
 C                  0.00000000    0.00000000  -20.63331230
 C                  0.00000000    0.00000000   -1.13618253
 H                  0.00000000    1.03372549   -1.47486169
 H                 -0.89523242   -0.51686224   -1.47486169
 H                  0.89523242   -0.51686224   -1.47486169
 Cl                 0.00000000    0.00000000    0.66127531

 1 2 3.0
 2
 3 4 1.0 5 1.0 6 1.0 7 1.0
 4
 5
 6
 7

