%chk=optstruct.chk
%nprocshared=24
%mem=24GB
# b3lyp/6-31g(d) scrf=smd geom=connectivity

title card

1 1
 C                 -1.38367100   -0.49836500   29.99986300
 C                 -2.40083300    0.37602600   30.00016800
 C                 -3.85121700   -0.00729100   30.00001200
 H                 -3.98079400   -1.09482900   29.99953500
 H                 -4.37049000    0.39665300   30.88023300
 H                 -4.37042600    0.39743200   29.12011400
 H                 -2.19551700    1.44659400   30.00050200
 C                  0.05799900   -0.20466400   29.99993400
 C                  0.96728600   -1.27720800   30.00002000
 C                  0.58504700    1.10086200   29.99991400
 C                  2.34463200   -1.06130000   30.00007000
 H                  0.58234000   -2.29468200   30.00005900
 C                  1.95954200    1.31856400   29.99996800
 H                 -0.08596200    1.95505200   29.99983700
 C                  2.84861400    0.23938300   30.00004300
 H                  3.02339800   -1.91029900   30.00012600
 H                  2.34109900    2.33649500   29.99994200
 H                  3.92125000    0.41315200   30.00008300
 H                 -1.62929800   -1.56161100   29.99961600
 S                  1.59407400    2.38748500   -0.75584800
 N                  0.30434000   -0.65241200    0.96628600
 N                 -0.14471100   -1.31061700   -1.52858200
 N                  1.89469800   -2.63119500   -0.24147900
 C                  2.15383100    2.99684100    0.83451000
 C                  1.18337100    3.54544000    1.68384300
 H                  0.13389900    3.50623400    1.40604200
 C                  1.57726100    4.14863200    2.88031700
 H                  0.82725100    4.58440700    3.53399400
 C                  2.92513600    4.17873900    3.24029100
 H                  3.22793200    4.64155100    4.17483100
 C                  3.88776300    3.61630000    2.39595800
 H                  4.93782900    3.64505100    2.67210500
 C                  3.50959700    3.03684500    1.18661700
 H                  4.25818200    2.61222000    0.52444300
 C                 -1.07743200   -0.98530700    1.22779600
 C                 -2.09061200   -0.55294700    0.37961000
 C                 -3.43552700   -1.01110400    0.62154800
 C                 -3.71770800   -1.78555100    1.79513900
 C                 -2.65543600   -2.12222300    2.67237300
 H                 -2.87191900   -2.70105600    3.56626900
 C                 -1.36468000   -1.75738700    2.38423200
 H                 -0.55786400   -2.05394800    3.04601200
 C                 -0.87006800   -0.07616100   -1.73610300
 C                 -1.78307700    0.33541500   -0.77576800
 C                 -2.38431200    1.63570700   -0.91294000
 C                 -2.11612200    2.41079400   -2.09057300
 C                 -1.22712700    1.90167800   -3.07324900
 H                 -1.02847500    2.49507700   -3.96162100
 C                 -0.59083800    0.70019100   -2.88933500
 H                  0.13220500    0.34693400   -3.61649500
 C                 -0.06385500   -2.23064000   -2.67660700
 H                 -1.08251800   -2.42059500   -3.02308000
 H                  0.38331400   -3.17044100   -2.36101600
 H                  0.52432800   -1.82404100   -3.50678600
 C                  1.11190600   -0.12442100    2.08500500
 H                  0.55685600    0.68086700    2.56968800
 H                  2.04003500    0.28573300    1.68556300
 H                  1.35411700   -0.89472000    2.82408400
 C                  3.30903200   -2.93252800   -0.66648700
 H                  3.39345500   -4.00943800   -0.50500300
 C                  1.17733600   -3.70911400    0.54422100
 H                  0.18347400   -3.31054600    0.76428800
 Se                 2.63734800    0.43911000   -0.99363700
 P                  1.09054700   -1.18141600   -0.40687700
 C                  1.87250200   -4.00061000    1.88031000
 H                  1.25703500   -4.69005500    2.46785800
 H                  2.84827300   -4.47672600    1.73810100
 H                  2.01868300   -3.08944000    2.46769900
 C                  0.97515600   -4.99743700   -0.26620500
 H                  1.92135700   -5.47994900   -0.53158600
 H                  0.41017800   -5.71095600    0.34278400
 H                  0.40515900   -4.82574500   -1.18243700
 C                  4.37261200   -2.26562900    0.21986400
 H                  5.36547900   -2.62766800   -0.06755100
 H                  4.37111500   -1.17741400    0.11692200
 H                  4.21722200   -2.50528000    1.27508200
 C                  3.54703700   -2.70005200   -2.16439900
 H                  2.84648900   -3.28068100   -2.77148800
 H                  3.45549200   -1.64541800   -2.44790900
 H                  4.56212300   -3.01652800   -2.42506600
 C                 -2.72022800    3.68759100   -2.24047700
 C                 -3.21569300    2.20923500    0.08926200
 C                 -3.77302300    3.45782900   -0.07986300
 C                 -3.53528900    4.20218200   -1.25915500
 C                 -4.50732000   -0.75291300   -0.27782600
 C                 -5.04524900   -2.22315600    2.04649100
 C                 -6.06058500   -1.93646700    1.16417900
 C                 -5.78171700   -1.20404600   -0.01320800
 H                 -2.51571400    4.25660600   -3.14361900
 H                 -3.98879000    5.18127600   -1.38140600
 H                 -4.40187600    3.87575700    0.70101400
 H                 -3.40876800    1.65511800    1.00040700
 H                 -4.31532100   -0.20076200   -1.19015400
 H                 -6.58094600   -0.99867800   -0.71945300
 H                 -7.07177400   -2.27955800    1.36148700
 H                 -5.24090500   -2.80021200    2.94656200

 1 2 2.0 8 1.0 19 1.0
 2 3 1.0 7 1.0
 3 4 1.0 5 1.0 6 1.0
 4
 5
 6
 7
 8 9 2.0 10 1.0
 9 11 1.0 12 1.0
 10 13 2.0 14 1.0
 11 15 2.0 16 1.0
 12
 13 15 1.0 17 1.0
 14
 15 18 1.0
 16
 17
 18
 19
 20 24 1.0 63 1.0
 21 35 1.0 55 1.0 64 1.0
 22 43 1.0 51 1.0 64 1.0
 23 59 1.0 61 1.0 64 1.0
 24 25 1.0 33 2.0
 25 26 1.0 27 2.0
 26
 27 28 1.0 29 1.0
 28
 29 30 1.0 31 2.0
 30
 31 32 1.0 33 1.0
 32
 33 34 1.0
 34
 35 36 2.0 41 1.0
 36 37 1.0 44 1.0
 37 38 2.0 85 1.0
 38 39 1.0 86 1.0
 39 40 1.0 41 2.0
 40
 41 42 1.0
 42
 43 44 2.0 49 1.0
 44 45 1.0
 45 46 2.0 82 1.0
 46 47 1.0 81 1.0
 47 48 1.0 49 2.0
 48
 49 50 1.0
 50
 51 52 1.0 53 1.0 54 1.0
 52
 53
 54
 55 56 1.0 57 1.0 58 1.0
 56
 57
 58
 59 60 1.0 73 1.0 77 1.0
 60
 61 62 1.0 65 1.0 69 1.0
 62
 63 64 2.0
 64
 65 66 1.0 67 1.0 68 1.0
 66
 67
 68
 69 70 1.0 71 1.0 72 1.0
 70
 71
 72
 73 74 1.0 75 1.0 76 1.0
 74
 75
 76
 77 78 1.0 79 1.0 80 1.0
 78
 79
 80
 81 84 2.0 89 1.0
 82 83 2.0 92 1.0
 83 84 1.0 91 1.0
 84 90 1.0
 85 88 2.0 93 1.0
 86 87 2.0 96 1.0
 87 88 1.0 95 1.0
 88 94 1.0
 89
 90
 91
 92
 93
 94
 95
 96

