%nprocshared=4 
%mem=4GB 
# b3lyp/6-31g(d) 

tmpdir/M1_conf_0_7.gjf 

0 1
C                   4.02767000    0.84653700    0.45232700 
H                   4.26651900    0.69429000   -0.61009800 
H                   4.80656200    1.52149500    0.82834200 
H                   4.14669930   -0.12585472    1.00779730 
H                   3.05999584    1.40226718    0.54471150 


