%nprocshared=4 
%mem=4GB 
# b3lyp/6-31g(d) 

tmpdir/M1_conf_0_8.gjf 

0 1
C                   2.69089300    1.61424100    0.57995000 
H                   2.90488500    2.68841200    0.51262500 
H                   2.24624700    1.44513500    1.56828700 
H                   3.65856716    1.05851082    0.48756550 
H                   1.90832011    1.38094774   -0.18670318 


