%nprocshared=4 
%mem=4GB 
# b3lyp/6-31g(d) 

tmpdir/M1_ref_9.gjf 

0 1
C                   1.27729300   -0.22630300    0.32117600 
H                   1.51941000   -0.13440500    1.39535300 
H                   0.90895302    0.76765256   -0.05753003 
H                   0.47391853   -0.90543982    0.20055922 
H                   2.22784672   -0.59522038   -0.25125675 


