%nprocshared=4 
%mem=4GB 
# b3lyp/6-31g(d) 

tmpdir/M1_ref_0.gjf 

0 1
C                  -0.20298400   -0.39175000   30.53635000 
C                  -0.93570400   -1.23058000   29.68505200 
C                  -0.73539200    0.85498100   30.88218500 
C                  -2.17630000   -0.83017500   29.19302300 
H                  -0.52575800   -2.19820500   29.40543500 
C                  -1.97939900    1.25816700   30.39149200 
H                  -0.17602800    1.51346300   31.54320800 
C                  -2.70147000    0.41622800   29.54607600 
H                  -2.73598500   -1.49051300   28.53601100 
H                  -2.38170600    2.22826300   30.67045200 
H                  -3.66985700    0.72719100   29.16358400 
H                   0.78087335   -0.70009793   30.90562524 


