%nprocshared=2 
%mem=2GB 
# b3lyp/6-31g(d) 

tmpdir/M2_conf_0_105.gjf 

0 1
C                   0.00000000    0.00000000    0.00000000 
H                   1.10140000    0.00000000    0.00000000 
H                  -0.42672000    0.00000000   -1.07942000 
H                  -0.35230000    0.91919000    0.47545000 
H                  -0.34688000   -0.85706000    0.59611000 


