%nprocshared=2 
%mem=2GB 
# b3lyp/6-31g(d) 

tmpdir/M2_conf_0_25.gjf 

0 1
C                   0.00000000    0.00000000    0.00000000 
C                   1.55490000    0.00000000    0.00000000 
H                   1.91046000    0.00000000    1.03852000 
H                  -0.37872000    0.75626000    0.69908000 
H                  -0.37440000    0.27627000   -0.99553000 
H                  -0.30751000   -0.98164000    0.24130000 
H                   2.03908000   -0.85067000   -0.54969000 
H                   1.88970000    0.94931000   -0.43905000 


