%nprocshared=2 
%mem=2GB 
# b3lyp/6-31g(d) 

tmpdir/M2_conf_0_13.gjf 

0 1
C                   0.00000000    0.00000000    0.00000000 
C                   1.56430000    0.00000000    0.00000000 
C                   2.30290000    0.00000000    1.36373000 
H                  -0.53580000    0.94300000   -0.29082000 
H                  -0.36769000   -0.34206000    0.97732000 
H                  -0.31985000   -0.76926000   -0.71384000 
H                   1.93378000    0.83305000   -0.61283000 
H                   1.88310000   -0.91131000   -0.52149000 
H                   2.49032000    1.01431000    1.81432000 
H                   1.73036000   -0.60091000    2.08210000 
H                   3.27416000   -0.49905000    1.24698000 


