%nprocshared=2 
%mem=2GB 
# b3lyp/6-31g(d) 

tmpdir/M2_conf_0_82.gjf 

0 1
C                   0.00000000    0.00000000    0.00000000 
C                   1.39690000    0.00000000    0.00000000 
C                  -0.71262000    0.00000000   -1.20402000 
H                  -0.54033000    0.00461000    0.94422000 
C                   2.09399000   -0.00295000   -1.20788000 
H                   1.93724000    0.00247000    0.94272000 


