%nprocshared=2 
%mem=2GB 
# b3lyp/6-31g(d) 

tmpdir/M2_conf_0_18.gjf 

0 1
H                   0.00000000    0.00000000    0.00000000 
C                   1.09820000    0.00000000    0.00000000 
H                   1.38959000    0.00000000    1.05790000 
H                   1.47918000    0.96820000   -0.44696000 
H                   1.46998000   -0.96835000   -0.42932000 


