%nprocshared=2 
%mem=2GB 
# b3lyp/6-31g(d) 

tmpdir/M2_conf_0_70.gjf 

0 1
H                   0.00000000    0.00000000    0.00000000 
C                   1.09220000    0.00000000    0.00000000 
C                   1.62722000    0.00000000    1.41514000 
H                   1.37326000    0.95935000   -0.61424000 
H                   1.42597000   -0.89485000   -0.54130000 
H                   1.22656000    0.61551000    2.11545000 
O                   2.57206000   -0.72781000    1.72955000 


