%nprocshared=2 
%mem=2GB 
# b3lyp/6-31g(d) 

tmpdir/M2_ref_94.gjf 

0 1
C                  -0.73539200    0.85498100   30.88218500 
C                  -1.97939900    1.25816700   30.39149200 
C                  -2.70147000    0.41622800   29.54607600 
O                  -0.26601259   -0.24415700   30.57729133 
H                  -0.17602800    1.51346300   31.54320800 
H                  -2.38170600    2.22826300   30.67045200 
H                  -2.32130679   -0.48602568   29.29050588 
H                  -3.66985700    0.72719100   29.16358400 


