%nprocshared=2 
%mem=2GB 
# b3lyp/6-31g(d) 

tmpdir/M2_ref_98.gjf 

0 1
C                  -2.17630000   -0.83017500   29.19302300 
C                  -2.70147000    0.41622800   29.54607600 
C                  -1.97939900    1.25816700   30.39149200 
O                  -1.08257072   -1.18317845   29.62680364 
H                  -2.73598500   -1.49051300   28.53601100 
H                  -3.66985700    0.72719100   29.16358400 
H                  -1.07887975    0.96630630   30.74669779 
H                  -2.38170600    2.22826300   30.67045200 


