%nprocshared=2 
%mem=2GB 
# b3lyp/6-31g(d) 

tmpdir/M2_ref_51.gjf 

0 1
C                   0.76845600    1.14678000   -0.20198100 
C                   1.27729300   -0.22630300    0.32117600 
O                   2.43496600   -0.67560500   -0.37598600 
H                  -0.22684237    1.48297727    0.19465641 
H                   1.52179200    1.90551600    0.04701100 
H                   0.73576000    1.07978600   -1.29627400 
H                   1.51941000   -0.13440500    1.39535300 
H                   0.47391853   -0.90543982    0.20055922 
H                   3.25894312   -0.24412205   -0.09750281 


