%nprocshared=2 
%mem=2GB 
# b3lyp/6-31g(d) 

tmpdir/M2_ref_61.gjf 

1 1
N                   2.46787600    0.32059500   29.52310100 
N                   2.78512500    1.28786200   29.00411000 
H                   2.28102320   -0.53116158   29.89126132 


