%nprocshared=2 
%mem=2GB 
# b3lyp/6-31g(d) 

tmpdir/M2_ref_70.gjf 

0 1
H                   1.14245600   -1.85735800   31.38092600 
C                   1.15614900   -0.81771200   31.04647900 
C                  -0.20298400   -0.39175000   30.53635000 
H                   1.99542718   -0.79708707   30.22690376 
H                   1.45905300   -0.19669200   31.89953500 
H                  -0.73338975   -0.99896729   29.92010730 
O                  -0.67236341    0.70738800   30.84124367 


