%nprocshared=2 
%mem=2GB 
# b3lyp/6-31g(d) 

tmpdir/M2_ref_35.gjf 

0 1
H                  -3.01433300   -2.06339200    0.49446800 
C                  -2.43447500   -1.37142600   -0.12932500 
C                  -0.99263600   -1.49660400    0.05981100 
H                  -2.70590185   -0.30691472    0.11578859 
H                  -2.69653400   -1.59376100   -1.17314100 
N                   0.07579020   -1.19073535    0.14706377 


