%nprocshared=2 
%mem=2GB 
# b3lyp/6-31g(d) 

tmpdir/M2_ref_82.gjf 

0 1
C                  -0.73539200    0.85498100   30.88218500 
C                  -1.97939900    1.25816700   30.39149200 
C                  -0.20298400   -0.39175000   30.53635000 
H                  -0.17602800    1.51346300   31.54320800 
C                  -2.70147000    0.41622800   29.54607600 
H                  -2.38170600    2.22826300   30.67045200 


