%nprocshared=2 
%mem=2GB 
# b3lyp/6-31g(d) 

tmpdir/M2_ref_106.gjf 

0 1
O                   2.43496600   -0.67560500   -0.37598600 
C                   3.63468400   -0.04736200    0.02948800 
H                   4.44739000   -0.55818900   -0.49361000 
H                   1.63986576   -0.36702034    0.10283114 
H                   3.66710900    1.02056800   -0.23268300 
H                   3.79547400   -0.14355500    1.11571600 


