%nprocshared=2 
%mem=2GB 
# b3lyp/6-31g(d) 

tmpdir/M2_ref_62.gjf 

0 1
N                   2.22391800   -0.79147200   30.00377700 
N                   2.46787600    0.32059500   29.52310100 
N                   2.78512500    1.28786200   29.00411000 
H                   1.47627789   -0.80984496   30.73386547 


