%nprocshared=2 
%mem=2GB 
# b3lyp/6-31g(d) 

tmpdir/M2_ref_83.gjf 

0 1
C                  -0.73539200    0.85498100   30.88218500 
H                  -0.17602800    1.51346300   31.54320800 
O                  -0.26601259   -0.24415700   30.57729133 
H                  -1.63591125    1.14684170   30.52697921 


