%nprocshared=4 
%mem=4GB 
# b3lyp/6-31g(d) 

tmpdir/M3_conf_0_54.gjf 

0 1
C                   0.00000000    0.00000000    0.00000000 
C                   1.46270000    0.00000000    0.00000000 
O                   1.96655000    0.00000000    1.33199000 
N                  -1.01675000   -0.23737000   -0.39071000 
H                   1.77768000   -0.91241000   -0.57903000 
H                   1.82774000    0.90186000   -0.52384000 
H                   2.89979000    0.25796000    1.40383000 


