%nprocshared=4 
%mem=4GB 
# b3lyp/6-31g(d) 

tmpdir/M3_conf_0_68.gjf 

-1 1
N                   0.00000000    0.00000000    0.00000000 
C                   1.49270000    0.00000000    0.00000000 
C                   2.13016000    0.00000000    1.37204000 
C                   2.09136000   -1.15055000    2.17208000 
C                   2.74146000    1.15413000    1.87381000 
C                   2.65504000   -1.14570000    3.44637000 
H                   1.61181000   -2.04961000    1.79240000 
C                   3.30857000    1.16125000    3.15017000 
H                   2.77860000    2.05228000    1.26104000 
C                   3.26605000    0.01147000    3.93828000 
H                   2.62105000   -2.04471000    4.05591000 
H                   3.78221000    2.06410000    3.52598000 
H                   3.70725000    0.01423000    4.93128000 
H                  -0.40584000    0.75970000    0.39245000 
H                   1.75434000   -0.90999000   -0.54440000 
H                   1.86096000    0.85475000   -0.58220000 


