%nprocshared=4 
%mem=4GB 
# b3lyp/6-31g(d) 

tmpdir/M3_conf_0_70.gjf 

0 1
H                   0.00000000    0.00000000    0.00000000 
C                   1.09220000    0.00000000    0.00000000 
C                   1.62722000    0.00000000    1.41514000 
C                   1.07373000    0.85030000    2.38259000 
C                   2.69899000   -0.82558000    1.77179000 
C                   1.58129000    0.87110000    3.68009000 
H                   0.24529000    1.50047000    2.11166000 
C                   3.20867000   -0.80781000    3.07205000 
H                   3.13543000   -1.49035000    1.02941000 
C                   2.65061000    0.04052000    4.02799000 
H                   1.14189000    1.53261000    4.42188000 
H                   4.03983000   -1.45623000    3.33553000 
H                   3.04482000    0.05561000    5.04045000 
H                   1.37326000    0.95935000   -0.61424000 
H                   1.42597000   -0.89485000   -0.54130000 


