%nprocshared=4 
%mem=4GB 
# b3lyp/6-31g(d) 

tmpdir/M3_conf_0_73.gjf 

0 1
C                   0.00000000    0.00000000    0.00000000 
O                   1.42410000    0.00000000    0.00000000 
C                   2.01147000    0.00000000    1.28590000 
H                  -0.42766000    1.01889000    0.21434000 
H                  -0.35811000   -0.70892000    0.76825000 
H                  -0.37982000   -0.28784000   -0.94560000 
H                   3.08839000   -0.11568000    1.13774000 
H                   1.83291000    0.93538000    1.83672000 
H                   1.64489000   -0.83961000    1.89887000 


