%nprocshared=4 
%mem=4GB 
# b3lyp/6-31g(d) 

tmpdir/M3_conf_0_75.gjf 

0 1
C                   0.00000000    0.00000000    0.00000000 
H                   1.09920000    0.00000000    0.00000000 
H                  -0.45035000    0.00000000   -1.06977000 
H                  -0.34724000   -0.91585000    0.48553000 
H                  -0.34757000    0.86651000    0.58601000 


