%nprocshared=4 
%mem=4GB 
# b3lyp/6-31g(d) 

tmpdir/M3_conf_0_34.gjf 

0 1
H                   0.00000000    0.00000000    0.00000000 
C                   1.09730000    0.00000000    0.00000000 
H                   1.39964000    0.00000000    1.05649000 
H                   1.48578000   -0.92165000   -0.51636000 
H                   1.51388000    0.83188000   -0.50083000 


