%nprocshared=4 
%mem=4GB 
# b3lyp/6-31g(d) 

tmpdir/M3_conf_0_63.gjf 

0 1
C                   0.00000000    0.00000000    0.00000000 
H                   1.09150000    0.00000000    0.00000000 
H                  -0.28106000    0.00000000   -1.13914000 
H                  -0.33377000    0.93838000    0.46174000 
H                  -0.39427000   -0.86050000    0.55095000 


