%nprocshared=4 
%mem=4GB 
# b3lyp/6-31g(d) 

tmpdir/M3_conf_0_61.gjf 

1 1
N                   0.00000000    0.00000000    0.00000000 
N                   1.16670000    0.00000000    0.00000000 
H                  -0.94009000    0.00000000   -0.10994000 


