%nprocshared=4 
%mem=4GB 
# b3lyp/6-31g(d) 

tmpdir/M3_conf_0_78.gjf 

0 1
O                   0.00000000    0.00000000    0.00000000 
C                   1.41370000    0.00000000    0.00000000 
H                   1.84036000    0.00000000    1.01399000 
H                  -0.40032000   -0.82330000    0.34439000 
H                   1.72638000    0.91583000   -0.50849000 
H                   1.81895000   -0.86648000   -0.54777000 


