%nprocshared=4 
%mem=4GB 
# b3lyp/6-31g(d) 

tmpdir/M3_conf_0_53.gjf 

0 1
H                   0.00000000    0.00000000    0.00000000 
C                   1.10500000    0.00000000    0.00000000 
O                   1.54862000    0.00000000    1.35324000 
H                   1.47127000    0.89414000   -0.57734000 
H                   1.45481000   -0.85281000   -0.52117000 
H                   1.05376000    0.60075000    1.93365000 


