%nprocshared=4 
%mem=4GB 
# b3lyp/6-31g(d) 

tmpdir/M3_ref_82.gjf 

0 1
H                   3.66710900    1.02056800   -0.23268300 
C                   3.63468400   -0.04736200    0.02948800 
H                   3.79547400   -0.14355500    1.11571600 
H                   2.64960755   -0.56320604   -0.30344265 
H                   4.44739000   -0.55818900   -0.49361000 


