%nprocshared=4 
%mem=4GB 
# b3lyp/6-31g(d) 

tmpdir/M3_ref_73.gjf 

0 1
C                   1.27729300   -0.22630300    0.32117600 
O                   2.43496600   -0.67560500   -0.37598600 
C                   3.63468400   -0.04736200    0.02948800 
H                   0.90895302    0.76765256   -0.05753003 
H                   1.51941000   -0.13440500    1.39535300 
H                   0.47391853   -0.90543982    0.20055922 
H                   4.44739000   -0.55818900   -0.49361000 
H                   3.66710900    1.02056800   -0.23268300 
H                   3.79547400   -0.14355500    1.11571600 


