%nprocshared=4 
%mem=4GB 
# b3lyp/6-31g(d) 

tmpdir/M3_ref_14.gjf 

0 1
C                  -0.60648200    1.61121400    0.34594700 
C                  -1.89970200    1.18401600   -0.42362600 
H                  -1.63877100    0.88728200   -1.44823000 
H                   0.38881637    1.27501673   -0.05069041 
H                  -0.69478600    1.32204100    1.40230700 
H                  -0.58315000    2.70805500    0.34805200 
H                  -2.55824353    0.39867859    0.03452796 
H                  -2.52022500    2.08294600   -0.52774400 


