%nprocshared=4 
%mem=4GB 
# b3lyp/6-31g(d) 

tmpdir/M3_ref_54.gjf 

0 1
C                   0.16748500   -1.16448500    0.15455200 
C                   1.27729300   -0.22630300    0.32117600 
O                   2.43496600   -0.67560500   -0.37598600 
N                  -0.90094120   -1.47035365    0.06729923 
H                   0.90895302    0.76765256   -0.05753003 
H                   1.51941000   -0.13440500    1.39535300 
H                   3.25894312   -0.24412205   -0.09750281 


