%nprocshared=4 
%mem=4GB 
# b3lyp/6-31g(d) 

tmpdir/M3_ref_28.gjf 

0 1
C                  -2.43447500   -1.37142600   -0.12932500 
H                  -3.01433300   -2.06339200    0.49446800 
H                  -2.70590185   -0.30691472    0.11578859 
H                  -2.69653400   -1.59376100   -1.17314100 
H                  -1.39074793   -1.46204060    0.00758790 


