%nprocshared=4 
%mem=4GB 
#m062x/6-31g(d)    scf=tight

tmpdir/M1_conf_0_2.gjf 

0 1
C                  -1.63853400   -0.55298300   -0.13092500 
O                  -2.31638400   -1.55182600   -0.02303900 
H                  -1.73273980    0.36197633    0.48788460 
H                  -0.84614956   -0.37881458   -0.82849123 


