%nprocshared=4 
%mem=4GB 
#m062x/6-31g(d)    scf=tight

tmpdir/M1_conf_0_0.gjf 

0 1
C                   2.07583100   -0.45812200   -0.79078700 
H                   3.11829500   -0.74060100   -0.57623300 
H                   1.93856100   -0.44364000   -1.87266700 
H                   1.42470857   -1.13102109   -0.23533841 
H                   1.86655411    0.47828028   -0.26798061 


