%nprocshared=4 
%mem=4GB 
#m062x/6-31g(d)    scf=tight

tmpdir/M1_ref_1.gjf 

0 1
C                  -1.26210900    0.87726700   -0.00006800 
C                   0.02627300    1.22963400   -0.00003000 
H                  -2.09760100    1.57109800   -0.00009900 
H                   0.43426800    2.23297000   -0.00001000 
H                  -1.41594201   -0.20530089   -0.00004484 
H                   0.64635302    0.35155160   -0.00004086 


