%nprocshared=4 
%mem=4GB 
#m062x/6-31g(d)    scf=tight

tmpdir/M1_ref_2.gjf 

0 1
C                   0.88287200    0.01662200   -0.00004500 
O                   2.09055500   -0.02192100    0.00005300 
H                   0.20622390   -0.86282348    0.00004838 
H                   0.26279198    0.89470440   -0.00003414 


