%nprocshared=4 
%mem=4GB 
#m062x/6-31g(d)    scf=tight

tmpdir/M2_conf_0_3.gjf 

0 1
C                   0.00000000    0.00000000    0.00000000 
C                   1.47030000    0.00000000    0.00000000 
H                   2.10107000    0.00000000    0.88170000 
H                  -0.61373000   -0.00000000    0.89365000 
O                  -0.38984000    0.00000000   -1.11883000 
O                   1.86014000   -0.00000000   -1.11883000 


