%nprocshared=4 
%mem=4GB 
#m062x/6-31g(d)    scf=tight

tmpdir/M2_conf_0_39.gjf 

0 1
H                   0.00000000    0.00000000    0.00000000 
C                   1.08310000    0.00000000    0.00000000 
C                   1.83590000    0.00000000    1.28005000 
O                   1.79867000   -0.00000000   -0.93525000 
H                   2.91592000   -0.00019000    1.02554000 
O                   1.37389000   -0.00017000    2.39653000 


