%nprocshared=4 
%mem=4GB 
#m062x/6-31g(d)    scf=tight

tmpdir/M2_conf_0_52.gjf 

0 1
C                   0.00000000    0.00000000    0.00000000 
C                   1.34380000    0.00000000    0.00000000 
C                   1.76531000    0.00000000    1.44237000 
H                  -0.35022000   -0.00000000    1.00513000 
H                  -0.64195000    0.00000000   -0.87359000 
H                   1.99381000   -0.00000000   -0.86637000 
H                   0.81807000    0.00000000    1.97720000 
H                   2.37603000    0.87904000    1.69069000 
H                   2.37603000   -0.87904000    1.69069000 


