%nprocshared=4 
%mem=4GB 
#m062x/6-31g(d)    scf=tight

tmpdir/M2_conf_0_30.gjf 

0 1
C                   0.00000000    0.00000000    0.00000000 
C                   1.39430000    0.00000000    0.00000000 
H                  -0.43389000    0.00000000   -1.00362000 
H                  -0.62290000   -0.00000000    0.88960000 
H                   2.05245000    0.00000000    0.86020000 
H                   1.76074000    0.00000000   -1.01062000 


