%nprocshared=4 
%mem=4GB 
#m062x/6-31g(d)    scf=tight

tmpdir/M2_conf_0_20.gjf 

0 1
H                   0.00000000    0.00000000    0.00000000 
C                   1.09330000    0.00000000    0.00000000 
C                   1.56572000    0.00000000    1.45829000 
H                   1.53073000    0.91225000   -0.46201000 
H                   1.41605000   -0.92486000   -0.48556000 
H                   2.17704000    0.87372000    1.59440000 
O                   1.29294000   -0.83424000    2.28873000 


