%nprocshared=4 
%mem=4GB 
#m062x/6-31g(d)    scf=tight

tmpdir/M2_conf_0_24.gjf 

0 1
C                   0.00000000    0.00000000    0.00000000 
C                   1.53640000    0.00000000    0.00000000 
C                   1.90464000    0.00000000    1.46493000 
H                  -0.43000000   -0.87975000   -0.48625000 
H                  -0.43000000    0.87992000   -0.48594000 
H                  -0.29447000   -0.00019000    1.06981000 
H                   1.95796000    0.87735000   -0.50287000 
H                   1.95796000   -0.87735000   -0.50287000 
O                   0.97026000    0.00000000    2.18164000 
H                   2.94032000   -0.00000000    1.79167000 


