%nprocshared=4 
%mem=4GB 
#m062x/6-31g(d)    scf=tight

tmpdir/M2_conf_0_47.gjf 

0 1
C                   0.00000000    0.00000000    0.00000000 
C                   1.34380000    0.00000000    0.00000000 
C                   1.78966000    0.00000000    1.43503000 
H                  -0.35022000   -0.00000000    1.00513000 
H                  -0.64195000    0.00000000   -0.87359000 
H                   1.99381000   -0.00000000   -0.86637000 
H                   0.85161000    0.00000000    1.98582000 
H                   2.40451000   -0.87904000    1.67298000 
H                   2.40451000    0.87904000    1.67298000 


