%nprocshared=4 
%mem=4GB 
#m062x/6-31g(d)    scf=tight

tmpdir/M2_ref_57.gjf 

0 1
C                   6.17730700    4.71924100    5.00006000 
C                   4.99997900    3.78540300    5.00012800 
H                   4.99998600    3.12602600    4.12113300 
O                   5.78752253    5.83804080    4.99994980 
H                   7.20929100    4.39039000    5.00012300 
H                   4.14775163    4.46142711    5.00003607 
H                   4.99993800    3.12623600    5.87928200 


