%nprocshared=4 
%mem=4GB 
#m062x/6-31g(d)    scf=tight

tmpdir/M2_ref_43.gjf 

0 1
C                   0.02627300    1.22963400   -0.00003000 
C                   0.88287200    0.01662200   -0.00004500 
O                   2.09055500   -0.02192100    0.00005300 
O                  -1.10958519    0.91898161   -0.00006350 
H                   0.43426800    2.23297000   -0.00001000 
H                   0.20622390   -0.86282348    0.00004838 


