%nprocshared=4 
%mem=4GB 
#m062x/6-31g(d)    scf=tight

tmpdir/M2_ref_31.gjf 

0 1
C                  -1.26210900    0.87726700   -0.00006800 
H                  -2.09760100    1.57109800   -0.00009900 
H                  -1.41594201   -0.20530089   -0.00004484 
O                  -0.12625081    1.18791939   -0.00003450 


