%nprocshared=4 
%mem=4GB 
# b3lyp/6-31g(d) 

tmpdir/M1_conf_0_1.gjf 

0 1
O                  -1.70376700   -1.08578500   -0.00144800 
H                  -2.01623300   -0.05057700   -0.15094800 
H                  -0.74931308   -0.88911123    0.32035609 


