%nprocshared=4 
%mem=4GB 
# b3lyp/6-31g(d) 

tmpdir/M1_conf_0_2.gjf 

0 1
N                  -0.43866300   -0.82509900    0.42509500 
H                  -0.33598300   -1.08622600    1.40603600 
H                  -1.45513738   -1.03455264    0.08238007 
H                   0.35072168   -1.10258810   -0.16037924 


