%nprocshared=4 
%mem=4GB 
# b3lyp/6-31g(d) 

tmpdir/M1_conf_0_4.gjf 

0 1
C                   1.81357100   -0.24321500   -0.02605900 
H                   2.26158700   -0.56202900    0.92297600 
H                   2.61462600   -0.26260400   -0.77106600 
H                   1.37192670    0.79072078    0.08543465 
H                   0.99931073   -0.95131305   -0.30476380 


