%nprocshared=2 
%mem=2GB 
# b3lyp/6-31g(d) 

tmpdir/M2_conf_0_0.gjf 

0 1
C                   0.00000000    0.00000000    0.00000000 
C                   1.25810000    0.00000000    0.00000000 
H                  -1.05931000    0.00000000   -0.01350000 
H                   2.32420000    0.00078000    0.00209000 


