%nprocshared=2 
%mem=2GB 
# b3lyp/6-31g(d) 

tmpdir/M2_conf_0_29.gjf 

0 1
H                   0.00000000    0.00000000    0.00000000 
C                   1.09920000    0.00000000    0.00000000 
C                   1.66831000    0.00000000    1.41785000 
H                   1.41461000   -0.95608000   -0.56138000 
H                   1.43430000    0.90870000   -0.52739000 
H                   1.38291000    0.91840000    1.98480000 
H                   1.31441000   -0.89000000    1.95085000 
H                   2.76010000   -0.06719000    1.36363000 


