%nprocshared=2 
%mem=2GB 
# b3lyp/6-31g(d) 

tmpdir/M2_conf_0_31.gjf 

0 1
C                   0.00000000    0.00000000    0.00000000 
H                   1.09680000    0.00000000    0.00000000 
H                  -0.37798000    0.00000000   -1.05047000 
H                  -0.36610000    0.87179000    0.57375000 
H                  -0.32422000   -0.91820000    0.50124000 


