%nprocshared=2 
%mem=2GB 
# b3lyp/6-31g(d) 

tmpdir/M2_conf_0_13.gjf 

0 1
H                   0.00000000    0.00000000    0.00000000 
C                   1.09960000    0.00000000    0.00000000 
C                   1.62580000    0.00000000    1.44965000 
H                   1.44887000    0.82614000   -0.56376000 
H                   1.40261000   -0.93276000   -0.49659000 
H                   1.26095000   -0.87155000    2.02457000 
H                   1.31924000    0.92268000    1.95573000 
H                   2.72083000   -0.01443000    1.43707000 


