%nprocshared=2 
%mem=2GB 
# b3lyp/6-31g(d) 

tmpdir/M2_conf_0_3.gjf 

0 1
C                   0.00000000    0.00000000    0.00000000 
H                   1.07750000    0.00000000    0.00000000 
N                  -1.11210000    0.00000000   -0.00233000 


