%nprocshared=2 
%mem=2GB 
# b3lyp/6-31g(d) 

tmpdir/M2_conf_0_2.gjf 

0 1
C                   0.00000000    0.00000000    0.00000000 
C                   1.20760000    0.00000000    0.00000000 
C                   2.58020000    0.00000000    0.50747000 
H                  -1.06610000    0.00078000   -0.00209000 
H                   3.10801000    0.88610000    0.12708000 
H                   3.11671000   -0.86985000    0.10172000 
H                   2.63301000   -0.01399000    1.62253000 


