%nprocshared=2 
%mem=2GB 
# b3lyp/6-31g(d) 

tmpdir/M2_ref_3.gjf 

0 1
C                  -3.58663900   -0.68445300   -0.13711000 
H                  -4.47463000   -1.24716500   -0.31445300 
N                  -2.66138540   -0.09627665    0.04950525 


