%nprocshared=2 
%mem=2GB 
# b3lyp/6-31g(d) 

tmpdir/M2_ref_20.gjf 

0 1
O                   2.65858300   -0.96763600    0.41397000 
H                   2.63968900   -1.73452300   -0.17951500 
H                   2.43429949   -0.14229362   -0.26715607 


