%chk=1a-HCl-2e-MajorPre_cpcm.chk
%nprocshared=16
%mem=16GB
#p b3lyp/gen scrf=(cpcm,solvent=toluene) pop=hirshfeld geom=connectivity
empiricaldispersion=gd3bj

title card

0 1
 C                 -0.81068100   -1.23131600   -2.65928698
 C                 -2.05299000   -1.67909700   -3.18742490
 C                 -2.21993200   -1.77145700   -4.57476521
 C                 -1.17361200   -1.41258600   -5.41817808 
 C                  0.22755600   -0.87277600   -3.53981304
 C                  0.04984600   -0.95826000   -4.91006994
 H                 -1.31824200   -1.48451700   -6.49470091
 H                 -3.15817000   -2.11507300   -4.99715185
 H                  1.17123100   -0.51650800   -3.13800502
 H                  0.85301900   -0.67350900   -5.58497095
 O                 -2.99388100   -1.98377500   -2.28745604
 C                 -4.26205300   -2.53017500   -2.70785189
 H                 -4.06650400   -3.47844800   -3.22938395
 H                 -4.74347800   -1.83711700   -3.40592194
 Cl                -0.66312500   -3.73547500   -0.56903702
 C                  1.82981700   -2.07321500    1.76568103
 N                  2.17768200   -2.57400700    0.55331099
 H                  1.43228800   -3.02281100    0.01071700
 N                  0.51233600   -2.17857800    2.02839589
 H                 -0.03841000   -2.62595300    1.28528094
 C                 -0.12850900   -2.19572900    3.33460903
 C                 -0.67989500   -3.61884900    3.55433893
 H                  0.63792800   -1.97976700    4.07921505
 C                 -2.27286500   -1.34424700    4.51988220
 C                 -1.61234100   -3.74550200    4.75521708
 H                 -1.22693300   -3.91938000    2.64780498
 H                  0.17683800   -4.29975300    3.63697696
 C                 -2.78581400   -2.77865300    4.60728979
 H                 -3.09665400   -0.63482800    4.36612606
 H                 -1.81380200   -1.07343800    5.47832394
 H                 -1.96706000   -4.78127600    4.83754492
 H                 -1.06695000   -3.52392200    5.68611717
 H                 -3.48156500   -2.86907400    5.45185089
 H                 -3.35525000   -3.03150800    3.69902706
 C                  3.48721400   -2.44265700   -0.04023200
 H                  4.21491700   -2.49501900    0.77098101
 C                  3.59096900   -1.08437700   -0.73573601
 C                  3.79062300   -3.62652300   -1.01730096
 C                  5.23845600   -3.49198900   -1.51444304
 H                  5.39122100   -2.56893900   -2.08783698
 H                  5.95222100   -3.50311600   -0.68045199
 H                  5.48300400   -4.33389300   -2.17414808
 C                  2.84046800   -3.65956000   -2.22541094
 H                  1.78695000   -3.72902300   -1.92864501
 H                  2.95622200   -2.77266000   -2.85727406
 H                  3.06625100   -4.54469400   -2.83489895
 C                  3.65426900   -4.93228800   -0.21634300
 H                  4.29746800   -4.91991000    0.67352700
 H                  2.62259700   -5.09952200    0.11195300
 H                  3.95205900   -5.78371100   -0.84178501
 O                  2.66253500   -0.69493500   -1.48851705
 C                  4.82715800    0.96047500   -1.32507205
 C                  5.77789400   -0.56102100    0.37922800
 C                  6.15096600    1.52658100   -0.73247999
 C                  6.32156400    0.84294200    0.62326401
 H                  6.53663700   -1.21037000   -0.07675900
 H                  5.39217200   -1.03053000    1.28774703
 H                  6.98286600    1.25412100   -1.39516306
 H                  6.11684100    2.61827600   -0.67052197
 H                  7.36322100    0.82455900    0.96094102
 H                  5.72923100    1.34582300    1.39640105
 N                  4.67627400   -0.32733600   -0.57444602
 C                  4.99475300    0.66353900   -2.81876397
 H                  4.06337500    0.30065300   -3.26129198
 H                  5.32030800    1.56318400   -3.35273099
 H                  5.77185500   -0.09868600   -2.94823098
 C                  3.65745100    1.89526000   -1.01315796
 C                  3.14336000    2.73749700   -1.97405100
 C                  3.12218100    1.95558400    0.30471799
 C                  2.12484900    3.67910400   -1.67328405
 H                  3.50567100    2.70149400   -2.99779010
 C                  2.15655400    2.87429300    0.63848901
 H                  3.45514000    1.24779900    1.05983901
 C                  1.64047800    3.77672000   -0.33097500
 H                  1.75941400    2.90043800    1.65259504
 N                 -0.76058300    0.25299700    3.44671202
 C                 -1.26632400    1.26702700    2.65368795
 C                 -0.01548200    0.81208000    4.49394417
 C                 -0.84331700    2.47969400    3.20125294
 C                 -0.04805900    2.17684100    4.34368277
 H                  0.42948100    2.89999300    4.99397421
 C                  0.71451300    0.04376200    5.54597616
 H                  1.09365400    0.75465900    6.28787804
 H                  0.08306100   -0.67977800    6.07443190
 H                  1.57218300   -0.49452400    5.12311792
 C                 -1.21590300    3.83654200    2.80413604
 O                 -2.25075800    3.85871400    1.93793201
 C                 -2.69411200    5.13050100    1.42113304
 H                 -3.37523800    5.57884500    2.15642095
 H                 -1.83330400    5.79805000    1.31511497
 C                 -3.38027900    4.85630800    0.10178000
 H                 -3.77263000    5.79139900   -0.31757200
 H                 -2.67834500    4.41550300   -0.61480999
 H                 -4.21401500    4.15625600    0.23464701
 O                 -0.67303000    4.85050400    3.21795201
 C                 -1.97332700    1.08140400    1.37211394
 C                 -1.38514600    1.61013600    0.23974200
 C                 -3.26150600    0.48704700    1.26309204
 C                 -2.03411100    1.59023500   -1.01539803
 H                 -0.39374100    2.04530500    0.30384600
 C                 -3.91751600    0.44447800    0.05445300
 H                 -3.74433400    0.08436500    2.15080500
 C                 -1.41898700    2.12112400   -2.18204188
 C                 -3.33424000    1.00087800   -1.11474895
 H                 -4.89451700   -0.02712500   -0.02076600
 C                 -2.06065400    2.06161600   -3.39576888
 H                 -0.42985200    2.56575100   -2.09791589
 C                 -3.97623700    0.97504700   -2.37977004
 C                 -3.35131900    1.48375900   -3.49518394
 H                 -1.57677500    2.45550500   -4.28726196
 H                 -4.96779000    0.53460000   -2.45452094
 H                 -3.84755700    1.44268900   -4.46300888
 C                 -1.25125600   -1.13550000    3.38614511
 H                 -1.78100700   -1.21992700    2.43207002
 S                  2.96371600   -1.36254100    2.82558393
 C                 -0.69305300   -1.10583300   -1.23513496
 H                 -1.59306100   -1.18115400   -0.63313597
 O                  0.33899500   -0.69221700   -0.60751998
 C                 -5.05272200   -2.74533700   -1.46253002
 H                 -4.53966900   -3.34945900   -0.71215701
 C                 -6.27227600   -2.26520600   -1.18131196
 C                 -7.10251600   -1.41738200   -2.10637808
 H                 -8.05083300   -1.92414700   -2.33704996
 H                 -7.36649800   -0.46792700   -1.61859298
 H                 -6.60999400   -1.18855500   -3.05568099
 C                 -6.91812100   -2.55857300    0.14625300
 H                 -7.87492200   -3.08359100    0.00995800
 H                 -6.27519500   -3.17189700    0.78696799
 H                 -7.14652200   -1.62283800    0.67818499
 H                  1.26427400   -0.72715500   -1.08086097
 C                  0.65468800    4.75079400   -0.02392400
 C                  0.13938700    5.56202700   -1.00951898
 H                  0.32576100    4.85518700    1.00662994
 H                 -0.61747300    6.30454700   -0.76475900
 C                  1.57039800    4.52966100   -2.66779804
 C                  0.59265100    5.44353600   -2.34526491
 H                  1.93209200    4.44613400   -3.69194889
 H                  0.17023100    6.08548400   -3.11613894

 1 2 2.0 5 1.0 116 1.0
 2 3 1.0 11 1.0
 3 4 2.0 8 1.0
 4 6 1.0 7 1.0
 5 6 2.0 9 1.0
 6 10 1.0
 7
 8
 9
 10
 11 12 1.0
 12 13 1.0 14 1.0 119 1.0
 13
 14
 15
 16 17 1.0 19 1.0 115 2.0
 17 18 1.0 35 1.0
 18
 19 20 1.0 21 1.0
 20
 21 22 1.0 23 1.0 113 1.0
 22 25 1.0 26 1.0 27 1.0
 23
 24 28 1.0 29 1.0 30 1.0 113 1.0
 25 28 1.0 31 1.0 32 1.0
 26
 27
 28 33 1.0 34 1.0
 29
 30
 31
 32
 33
 34
 35 36 1.0 37 1.0 38 1.0
 36
 37 51 2.0 62 1.0
 38 39 1.0 43 1.0 47 1.0
 39 40 1.0 41 1.0 42 1.0
 40
 41
 42
 43 44 1.0 45 1.0 46 1.0
 44
 45
 46
 47 48 1.0 49 1.0 50 1.0
 48
 49
 50
 51
 52 54 1.0 62 1.0 63 1.0 67 1.0
 53 55 1.0 56 1.0 57 1.0 62 1.0
 54 55 1.0 58 1.0 59 1.0
 55 60 1.0 61 1.0
 56
 57
 58
 59
 60
 61
 62
 63 64 1.0 65 1.0 66 1.0
 64
 65
 66
 67 68 1.0 69 2.0
 68 70 2.0 71 1.0
 69 72 1.0 73 1.0
 70 74 1.0 135 1.0
 71
 72 74 2.0 75 1.0
 73
 74 131 1.0
 75
 76 77 1.0 78 1.0 113 1.0
 77 79 2.0 96 1.0
 78 80 2.0 82 1.0
 79 80 1.0 86 1.0
 80 81 1.0
 81
 82 83 1.0 84 1.0 85 1.0
 83
 84
 85
 86 87 1.0 95 2.0
 87 88 1.0
 88 89 1.0 90 1.0 91 1.0
 89
 90
 91 92 1.0 93 1.0 94 1.0
 92
 93
 94
 95
 96 97 2.0 98 1.0
 97 99 1.0 100 1.0
 98 101 2.0 102 1.0
 99 103 1.0 104 2.0
 100
 101 104 1.0 105 1.0
 102
 103 106 2.0 107 1.0
 104 108 1.0
 105
 106 109 1.0 110 1.0
 107
 108 109 2.0 111 1.0
 109 112 1.0
 110
 111
 112
 113 114 1.0
 114
 115
 116 117 1.0 118 2.0
 117
 118
 119 120 1.0 121 2.0
 120
 121 122 1.0 126 1.0
 122 123 1.0 124 1.0 125 1.0
 123
 124
 125
 126 127 1.0 128 1.0 129 1.0
 127
 128
 129
 130
 131 132 2.0 133 1.0
 132 134 1.0 136 1.0
 133
 134
 135 136 2.0 137 1.0
 136 138 1.0
 137
 138

!   Basis set: pcseg-1
-H     0
S    3   1.00
      0.122518D+02           0.233371D-01
      0.186871D+01           0.159150D+00
      0.418208D+00           0.500000D+00
S    1   1.00
      0.106100D+00           1.0000000
P    1   1.00
      0.100000D+01           1.0000000
****
-C     0
S    5   1.00
      0.124320D+04           0.603366D-02
      0.187145D+03           0.449576D-01
      0.425126D+02           0.197901D+00
      0.117393D+02           0.500000D+00
      0.350548D+01           0.480364D+00
S    2   1.00
      0.539089D+01          -0.703980D-01
      0.493341D+00           0.500000D+00
S    1   1.00
      0.149741D+00           1.0000000
P    3   1.00
      0.918056D+01           0.431701D-01
      0.193658D+01           0.224999D+00
      0.526296D+00           0.500000D+00
P    1   1.00
      0.136319D+00           1.0000000
D    1   1.00
      0.800000D+00           1.0000000
****
-N     0
S    5   1.00
      0.172632D+04           0.593077D-02
      0.259827D+03           0.442539D-01
      0.590335D+02           0.196096D+00
      0.163509D+02           0.500000D+00
      0.491084D+01           0.482987D+00
S    2   1.00
      0.775894D+01          -0.703356D-01
      0.705573D+00           0.500000D+00
S    1   1.00
      0.209286D+00           1.0000000
P    3   1.00
      0.131844D+02           0.440747D-01
      0.281860D+01           0.230478D+00
      0.765571D+00           0.500000D+00
P    1   1.00
      0.195949D+00           1.0000000
D    1   1.00
      0.900000D+00           1.0000000
****
-O     0
S    5   1.00
      0.228864D+04           0.585468D-02
      0.344416D+03           0.437333D-01
      0.782538D+02           0.194796D+00
      0.217195D+02           0.500000D+00
      0.655907D+01           0.484614D+00
S    2   1.00
      0.104656D+02          -0.713343D-01
      0.964351D+00           0.500000D+00
S    1   1.00
      0.285127D+00           1.0000000
P    3   1.00
      0.170590D+02           0.474439D-01
      0.368999D+01           0.242689D+00
      0.992996D+00           0.500000D+00
P    1   1.00
      0.244924D+00           1.0000000
D    1   1.00
      0.100000D+01           1.0000000
****
-S     0
S    7   1.00
      0.492994D+05           0.745680D-03
      0.739584D+04           0.575893D-02
      0.168330D+04           0.294637D-01
      0.476144D+03           0.113223D+00
      0.154329D+03           0.315267D+00
      0.550288D+02           0.500000D+00
      0.205029D+02           0.299093D+00
S    3   1.00
      0.459596D+02          -0.874744D-01
      0.492740D+01           0.558303D+00
      0.191799D+01           0.500000D+00
S    1   1.00
      0.368498D+00           1.0000000
S    1   1.00
      0.129165D+00           1.0000000
P    6   1.00
      0.451662D+03           0.400554D-02
      0.106098D+03           0.315665D-01
      0.336996D+02           0.134441D+00
      0.123054D+02           0.347659D+00
      0.471412D+01           0.500000D+00
      0.178105D+01           0.287922D+00
P    2   1.00
      0.872235D+00           0.243521D+00
      0.310278D+00           0.500000D+00
P    1   1.00
      0.100194D+00           1.0000000
D    1   1.00
      0.550000D+00           1.0000000
****
-Cl     0
S    7   1.00
      0.561295D+05           0.739040D-03
      0.842032D+04           0.570820D-02
      0.191646D+04           0.292141D-01
      0.542099D+03           0.112411D+00
      0.175740D+03           0.313999D+00
      0.627191D+02           0.500000D+00
      0.234123D+02           0.302077D+00
S    3   1.00
      0.522067D+02          -0.897496D-01
      0.566022D+01           0.573007D+00
      0.224230D+01           0.500000D+00
S    1   1.00
      0.456488D+00           1.0000000
S    1   1.00
      0.159693D+00           1.0000000
P    6   1.00
      0.533333D+03           0.379695D-02
      0.125415D+03           0.300914D-01
      0.399394D+02           0.129733D+00
      0.146334D+02           0.341517D+00
      0.564837D+01           0.500000D+00
      0.215360D+01           0.289333D+00
P    2   1.00
      0.108810D+01           0.252417D+00
      0.387168D+00           0.500000D+00
P    1   1.00
      0.123929D+00           1.0000000
D    1   1.00
      0.600000D+00           1.0000000
****






