%nprocshared=4 
%mem=4GB 
#m062x/6-31g(d)    scf=tight

tmpdir/M2_conf_0_43.gjf 

0 1
C                   0.00000000    0.00000000    0.00000000 
C                   1.48500000    0.00000000    0.00000000 
O                   2.21772000    0.00000000    0.96079000 
C                  -0.45530000    0.00000000   -1.25570000 
H                  -0.58418000    0.00016000    0.91205000 
H                   1.81312000   -0.00019000   -1.05998000 


