%nprocshared=4 
%mem=4GB 
#m062x/6-31g(d)    scf=tight

tmpdir/M2_conf_0_38.gjf 

0 1
C                   0.00000000    0.00000000    0.00000000 
C                   1.33570000    0.00000000    0.00000000 
C                   1.84409000    0.00000000    1.39527000 
H                  -0.43389000    0.00000000    1.00362000 
H                  -0.62290000    0.00000000   -0.88960000 
H                   1.99385000   -0.00000000   -0.86020000 
H                   0.96049000    0.00019000    2.06644000 
O                   2.99934000   -0.00000000    1.74935000 


