%nprocshared=4 
%mem=4GB 
#m062x/6-31g(d)    scf=tight

tmpdir/M2_conf_0_1.gjf 

0 1
C                   0.00000000    0.00000000    0.00000000 
H                   1.08420000    0.00000000    0.00000000 
H                  -0.60258000    0.00000000   -0.87741000 
C                  -0.79574000   -0.00000000    1.08287000 


