%nprocshared=4 
%mem=4GB 
#m062x/6-31g(d)    scf=tight

tmpdir/M2_conf_0_37.gjf 

0 1
C                   0.00000000    0.00000000    0.00000000 
C                   1.33570000    0.00000000    0.00000000 
H                   1.97157000    0.00000000    0.87680000 
H                  -0.43389000    0.00000000   -1.00362000 
H                  -0.62290000    0.00000000    0.88960000 
H                   1.70214000   -0.00000000   -1.01062000 


