%nprocshared=4 
%mem=4GB 
#m062x/6-31g(d)    scf=tight

tmpdir/M2_conf_0_14.gjf 

0 1
C                   0.00000000    0.00000000    0.00000000 
C                   1.53140000    0.00000000    0.00000000 
H                  -0.29516000    0.00000000   -1.07232000 
H                  -0.35468000   -0.87979000    0.54358000 
H                  -0.35450000    0.87984000    0.54361000 
H                   1.84929000    0.00018000   -1.02692000 
O                   2.23735000    0.00000000    0.98062000 


