%nprocshared=4 
%mem=4GB 
#m062x/6-31g(d)    scf=tight

tmpdir/M2_conf_0_7.gjf 

0 1
C                   0.00000000    0.00000000    0.00000000 
C                   1.39810000    0.00000000    0.00000000 
H                  -0.35022000    0.00000000   -1.00513000 
H                  -0.64195000   -0.00000000    0.87359000 
H                   2.04811000    0.00000000    0.86637000 
H                   1.75602000   -0.00000000   -1.02723000 


