%nprocshared=4 
%mem=4GB 
#m062x/6-31g(d)    scf=tight

tmpdir/M2_conf_0_27.gjf 

0 1
C                   0.00000000    0.00000000    0.00000000 
C                   1.51050000    0.00000000    0.00000000 
H                   1.93647000    0.00000000    1.00940000 
C                  -0.53004000    1.04870000   -0.63512000 
H                  -0.56937000   -0.79094000    0.47920000 
H                   1.78126000    0.92271000   -0.55882000 
H                   1.89544000   -0.90910000   -0.47507000 


