%nprocshared=4 
%mem=4GB 
#m062x/6-31g(d)    scf=tight

tmpdir/M2_conf_0_16.gjf 

0 1
C                   0.00000000    0.00000000    0.00000000 
C                   1.53640000    0.00000000    0.00000000 
H                   1.93568000    0.00000000    1.01778000 
H                  -0.26618000    0.92834000   -0.51269000 
H                  -0.42156000   -0.01588000    1.01112000 
H                  -0.42156000   -0.86435000   -0.52491000 
H                   1.96640000   -0.85105000   -0.53490000 
H                   1.83087000    0.93640000   -0.51735000 


