%nprocshared=4 
%mem=4GB 
#m062x/6-31g(d)    scf=tight

tmpdir/M2_ref_35.gjf 

0 1
C                   0.02627300    1.22963400   -0.00003000 
H                   0.43426800    2.23297000   -0.00001000 
C                  -1.26210900    0.87726700   -0.00006800 
H                   0.64635302    0.35155160   -0.00004086 


