%nprocshared=4
%mem=4GB
# 6-31g(d) m062x scf=tight

tmpdir/M2_ref_56.gjf

0 1
 C                  6.17730700    4.71924100    5.00006000
 C                  4.99997900    3.78540300    5.00012800
 C                  3.82268400    4.71928500    5.00000100
 H                  7.20929100    4.39039000    5.00012300
 H                  4.99998600    3.12602600    4.12113300
 H                  4.99993800    3.12623600    5.87928200
 H                  2.79069100    4.39046600    5.00001100

