%nprocshared=4 
%mem=4GB 
#m062x/6-31g(d)    scf=tight

tmpdir/M2_ref_10.gjf 

0 1
H                   3.65116200    6.88196100    4.99973000 
C                   4.26485100    5.98829900    4.99985000 
C                   3.82268400    4.71928500    5.00000100 
H                   5.32920303    5.98828090    4.99991153 
H                   2.79069100    4.39046600    5.00001100 
H                   4.67491137    4.04326089    5.00009293 


