%nprocshared=4 
%mem=4GB 
#m062x/6-31g(d)    scf=tight

tmpdir/M2_ref_6.gjf 

0 1
C                   4.26485100    5.98829900    4.99985000 
H                   3.65116200    6.88196100    4.99973000 
H                   5.32920303    5.98828090    4.99991153 
C                   3.82268400    4.71928500    5.00000100 


