%nprocshared=4 
%mem=4GB 
#m062x/6-31g(d)    scf=tight

tmpdir/M2_ref_33.gjf 

0 1
C                  -1.47461900   -0.61822800   -0.00003600 
C                  -1.26210900    0.87726700   -0.00006800 
H                  -2.09760100    1.57109800   -0.00009900 
H                  -0.44471237   -1.03811445    0.00005087 
H                  -2.05496600   -0.92464400    0.87728400 
H                  -2.05484100   -0.92469800   -0.87741900 
C                   0.02627300    1.22963400   -0.00003000 


