%chk=Bnts-prod.chk
%nprocshared=24
%mem=24GB
# opt=(noeigen,maxstep=10) b3lyp/6-31g(d) geom=connectivity em=gd3
optcyc=60

title

0 1
 C                  3.72236600    0.92255000   -0.77395700
 C                  4.65638000   -0.03269400   -0.01065500
 C                  4.08899500   -1.41975800    0.32699400
 C                  2.81536300   -1.44991700    1.20387300
 C                  2.61980300    1.58517200    0.09181200
 C                  1.19388200    1.21002400   -0.32339600
 H                  3.26533500    0.37989900   -1.61348400
 H                  4.98373600    0.46013200    0.91676800
 H                  3.88589700   -1.97087300   -0.60082900
 H                  4.33496700    1.71039600   -1.22777300
 H                  5.56466600   -0.18189700   -0.60970700
 H                  4.87544200   -1.97937500    0.85011800
 H                  2.75967300   -2.42374600    1.70115300
 H                  2.89196300   -0.69966100    2.00040100
 H                  2.70005300    2.67506600    0.02202600
 H                  2.74371800    1.34399900    1.15198000
 H                  1.07260500    1.46860300   -1.39113100
 C                  0.87872700   -0.24557100   -0.15339100
 C                  1.51958800   -1.31472400    0.45433800
 N                 -0.25772700   -0.80104900   -0.67694700
 N                 -0.31709400   -2.12018200   -0.41758300
 N                  0.75448800   -2.43260300    0.25759800
 C                 -1.37764400   -0.16549800   -1.37251200
 H                 -1.06162100    0.84751100   -1.63170200
 H                 -1.53747000   -0.71693400   -2.30311100
 C                 -2.65185300   -0.13594200   -0.55079300
 C                 -2.67822300    0.48302000    0.70582200
 C                 -3.81974600   -0.71436300   -1.05437500
 C                 -3.86129400    0.51985400    1.44201500
 H                 -1.76798900    0.92501100    1.09870100
 C                 -5.00646400   -0.67109800   -0.31919200
 H                 -3.80106700   -1.20894100   -2.02278100
 C                 -5.02926400   -0.05373500    0.93129000
 H                 -3.87246000    0.99751100    2.41836000
 H                 -5.90735800   -1.12729600   -0.72075500
 H                 -5.94981800   -0.02342800    1.50818900
 O                  0.21635200    1.94345000    0.43022100
 C                 -0.03712600    3.25491000   -0.04111900
 H                 -0.85321800    3.65203600    0.56750000
 H                  0.83495100    3.91653500    0.05990900
 H                 -0.35143400    3.25131300   -1.09759800

 1 2 1.0 5 1.0 7 1.0 10 1.0
 2 3 1.0 8 1.0 11 1.0
 3 4 1.0 9 1.0 12 1.0
 4 13 1.0 14 1.0 19 1.0
 5 6 1.0 15 1.0 16 1.0
 6 17 1.0 18 1.0 37 1.0
 7
 8
 9
 10
 11
 12
 13
 14
 15
 16
 17
 18 19 1.5 20 1.5
 19 22 1.5
 20 21 1.0 23 1.0
 21 22 1.5
 22
 23 24 1.0 25 1.0 26 1.0
 24
 25
 26 27 1.5 28 1.5
 27 29 1.5 30 1.0
 28 31 1.5 32 1.0
 29 33 1.5 34 1.0
 30
 31 33 1.5 35 1.0
 32
 33 36 1.0
 34
 35
 36
 37 38 1.0
 38 39 1.0 40 1.0 41 1.0
 39
 40
 41

