%chk=Ir-indole-reactant.chk
%nprocshared=16
%mem=16GB
# genecp scrf=(smd,solvent=n-octane) geom=connectivity m06 sp

title card

0 1
 Ir                 0.00000000    0.00000000    0.00000000
 B                  0.00000000    0.00000000    2.02077729
 B                  2.03541364    0.00000000    0.17507411
 O                 -0.36208391    1.02308196    2.91001478
 O                  0.25726862   -1.17964004    2.72890983
 B                  0.09967269    1.97703326    0.22833026
 N                 -2.21147258    0.00241098   -0.42491168
 N                 -0.27950106   -0.58236144   -2.19122792
 O                  2.89283568   -0.14989497   -0.93855617
 O                  2.80631857    0.12986559    1.33043540
 C                 -0.36321922    0.50802756    4.24378761
 C                  0.29122164   -0.88523851    4.12473608
 O                  1.24498417    2.75900776    0.35504417
 O                 -1.04850521    2.77826461    0.20835318
 C                 -2.62410355   -0.35292770   -1.66441425
 C                 -3.11488941    0.42343725    0.47469361
 C                 -1.55620686   -0.75580555   -2.61556821
 C                  0.73816737   -0.89551851   -3.01186614
 C                  4.25010370   -0.19731545   -0.49204558
 C                  4.18134183    0.25778897    0.97984621
 H                 -1.39851255    0.45004027    4.60917573
 H                  0.19247700    1.18504097    4.90229354
 H                 -0.24823340   -1.65948565    4.68277981
 H                  1.33500526   -0.87704402    4.46595464
 C                  0.85196357    4.10573883    0.61782203
 C                 -0.65107675    4.14880233    0.26307817
 C                 -3.97920513   -0.30549193   -2.01489948
 C                 -4.47685180    0.48819505    0.19488915
 H                 -2.70821622    0.72680925    1.43250144
 C                 -1.82719866   -1.27532467   -3.88710207
 C                  0.53481486   -1.40181001   -4.29423632
 H                  1.72830928   -0.72388997   -2.59967988
 H                  4.86867064    0.45897521   -1.11482193
 H                  4.62999013   -1.22424925   -0.59071268
 H                  4.48858818    1.30585142    1.09818848
 H                  4.79545487   -0.35929871    1.64578084
 H                  1.02983008    4.33299713    1.67723768
 H                  1.45372740    4.79200912    0.01117662
 H                 -1.24977205    4.67824260    1.01310962
 H                 -0.83109729    4.61842861   -0.71429028
 C                 -4.91573655    0.11225211   -1.07375388
 H                 -4.30222211   -0.57552334   -3.01354480
 H                 -5.16971363    0.83245114    0.95556577
 C                 -0.77175911   -1.60092493   -4.73495643
 H                 -2.84858898   -1.43483602   -4.21221795
 H                  1.38730890   -1.63791410   -4.92273028
 H                 -5.96955879    0.15296361   -1.33340634
 H                 -0.97151325   -2.00574929   -5.72297117
 C                  3.55371700   28.87205264   -8.74085683
 C                  3.89300205   28.39167443   -9.97814931
 N                  2.17934799   29.00533064   -8.65725897
 H                  4.18042964   29.13462413   -7.89982301
 C                  2.67058159   28.21265679  -10.71283899
 H                  4.89613668   28.18844378  -10.32724390
 C                  1.60823974   28.60905203   -9.85055378
 H                  1.67465177   29.33932568   -7.85152320
 C                  2.35616833   27.76010828  -12.00705984
 C                  0.26647632   28.56393048  -10.24539734
 C                  1.02560866   27.71370739  -12.40310926
 H                  3.14590363   27.45102659  -12.68724115
 C                 -0.00932786   28.11172268  -11.53086041
 H                 -0.53185139   28.87038219   -9.57410963
 H                  0.77387633   27.36539337  -13.40121019
 H                 -1.04096026   28.06433292  -11.86896449

 1 6 1.0 2 1.0 3 1.0
 2 5 1.0 4 1.0
 3 10 1.0 9 1.0
 4 11 1.0
 5 12 1.0
 6 14 1.0 13 1.0
 7
 8
 9 19 1.0
 10 20 1.0
 11 12 1.0 21 1.0 22 1.0
 12 24 1.0 23 1.0
 13 25 1.0
 14 26 1.0
 15 17 1.0
 16
 17
 18
 19 20 1.0 34 1.0 33 1.0
 20 35 1.0 36 1.0
 21
 22
 23
 24
 25 26 1.0 37 1.0 38 1.0
 26 40 1.0 39 1.0
 27
 28
 29
 30
 31
 32
 33
 34
 35
 36
 37
 38
 39
 40
 41
 42
 43
 44
 45
 46
 47
 48
 49 50 2.0 51 1.0 52 1.0
 50 54 1.0 53 1.0
 51 55 1.0 56 1.0
 52
 53 55 2.0 57 1.0
 54
 55 58 1.0
 56
 57 59 2.0 60 1.0
 58 61 2.0 62 1.0
 59 61 1.0 63 1.0
 60
 61 64 1.0
 62
 63
 64

-Ir 0
SDD
****
-C -H -O -N -B 0
6-311G(d,p)
****

!  Q=17., MEFIT, MCDHF+Breit+shift, Ref 48.
-Ir 0
ECP60MDF 5 60
H-Komponente
1
2 1.000000 0.000000
S-H
2
2 13.831474 426.958149
2 7.047914 65.338813
P-H
4
2 11.106433 88.075442
2 10.456552 176.124770
2 6.379614 12.682260
2 5.064726 24.635949
D-H
4
2 7.548754 46.433258
2 7.265308 69.638074
2 3.800969 6.150248
2 3.718280 9.463560
F-H
2
2 3.098706 9.483610
2 3.049461 12.642742
G-H
2
2 4.969790 -10.410697
2 4.935614 -12.863196
! References:
! [48] D. Figgen, K.A. Peterson, M. Dolg, H. Stoll, J. Chem. Phys. 130, 164108 (2009)








