%nprocshared=2 
%mem=2GB 
# 6-31+g(d) scrf=(solvent=water,pcm) 
int=ultrafine m062x scf=tight

tmpdir/M1_conf_84_0.gjf 

-1 1
N                  -3.42184293   -0.00000370    0.00106871 
C                  -2.25024191    0.00000603   -0.00100737 


