%nprocshared=2 
%mem=2GB 
# 6-31+g(d) scrf=(solvent=water,pcm) 
int=ultrafine m062x scf=tight

tmpdir/M1_conf_3_2.gjf 

0 1
Cl                  2.18021530   -0.00000357    0.00057993 
H                   0.81746505    0.00003543   -0.00151124 


