%nprocshared=2 
%mem=2GB 
# 6-31+g(d) scrf=(solvent=water,pcm) 
int=ultrafine m062x scf=tight

tmpdir/M1_conf_118_2.gjf 

0 1
Cl                  2.19339659   -0.00000332    0.00042344 
H                   0.34757592    0.00000309   -0.00074908 


