%nprocshared=2 
%mem=2GB 
# 6-31+g(d) scrf=(solvent=water,pcm) 
int=ultrafine m062x scf=tight

tmpdir/M1_conf_65_2.gjf 

0 1
Cl                  2.14524353   -0.00000298    0.00044630 
H                   0.58934008    0.00000128   -0.00074759 


