%nprocshared=2 
%mem=2GB 
# 6-31+g(d) scrf=(solvent=water,pcm) 
int=ultrafine m062x scf=tight

tmpdir/M1_conf_21_1.gjf 

0 1
C                   0.33257252    0.00001767   -0.00090486 
H                  -0.00202248    0.89478551   -0.51370862 
H                  -0.00363989   -0.00359599    1.02982902 
H                  -0.00203185   -0.89111408   -0.51998816 
H                   1.49470403    0.00000398   -0.00005331 


