%nprocshared=2 
%mem=2GB 
# 6-31+g(d) scrf=(solvent=water,pcm) 
int=ultrafine m062x scf=tight

tmpdir/M1_conf_47_0.gjf 

-1 1
N                  -3.48306985   -0.00000446    0.00116458 
C                  -2.31105449    0.00001587   -0.00129925 


