%nprocshared=2 
%mem=2GB 
# 6-31+g(d) scrf=(solvent=water,pcm) 
int=ultrafine m062x scf=tight

tmpdir/M1_conf_2_0.gjf 

-1 1
N                  -3.65491925   -0.00000293    0.00155900 
C                  -2.47963145   -0.00004977   -0.00050662 


