%nprocshared=2 
%mem=2GB 
# 6-31+g(d) scrf=(solvent=water,pcm) 
int=ultrafine m062x scf=tight

tmpdir/M1_conf_28_2.gjf 

0 1
Cl                  2.12522739   -0.00000355    0.00037779 
H                   0.75624528    0.00000327   -0.00049459 


