%nprocshared=2 
%mem=2GB 
# 6-31+g(d) scrf=(solvent=water,pcm) 
int=ultrafine m062x scf=tight

tmpdir/M1_conf_103_0.gjf 

-1 1
N                  -3.38884817   -0.00000303    0.00095926 
C                  -2.21606973    0.00000637   -0.00094954 


