%nprocshared=2 
%mem=2GB 
# 6-31+g(d) scrf=(solvent=water,pcm) 
int=ultrafine m062x scf=tight

tmpdir/M1_conf_75_2.gjf 

0 1
Cl                  2.15493701   -0.00000262    0.00043627 
H                   0.54477046    0.00000176   -0.00076863 


