%nprocshared=2 
%mem=2GB 
# 6-31+g(d) scrf=(solvent=water,pcm) 
int=ultrafine m062x scf=tight

tmpdir/M1_conf_37_2.gjf 

0 1
Cl                  2.12039335   -0.00000414    0.00039896 
H                   0.71561061   -0.00000106   -0.00059461 


