%nprocshared=2 
%mem=2GB 
# 6-31+g(d) scrf=(solvent=water,pcm) 
int=ultrafine m062x scf=tight

tmpdir/M1_conf_60_2.gjf 

0 1
Cl                  2.14027614   -0.00000307    0.00044564 
H                   0.61149095    0.00000091   -0.00073585 


