%nprocshared=2 
%mem=2GB 
# 6-31+g(d) scrf=(solvent=water,pcm) 
int=ultrafine m062x scf=tight

tmpdir/M1_conf_46_2.gjf 

0 1
Cl                  2.12603597   -0.00000368    0.00042477 
H                   0.67716851   -0.00000115   -0.00066922 


