%nprocshared=2 
%mem=2GB 
# 6-31+g(d) scrf=(solvent=water,pcm) 
int=ultrafine m062x scf=tight

tmpdir/M1_conf_66_0.gjf 

-1 1
N                  -3.45088420   -0.00000379    0.00110338 
C                  -2.27966631    0.00000936   -0.00113375 


