%nprocshared=2 
%mem=2GB 
# 6-31+g(d) scrf=(solvent=water,pcm) 
int=ultrafine m062x scf=tight

tmpdir/M1_conf_66_2.gjf 

0 1
Cl                  2.14623309   -0.00000295    0.00044601 
H                   0.58489773    0.00000134   -0.00074970 


