%nprocshared=2 
%mem=2GB 
# 6-31+g(d) scrf=(solvent=water,pcm) 
int=ultrafine m062x scf=tight

tmpdir/M1_conf_22_0.gjf 

-1 1
N                  -3.56734669   -0.00000653    0.00136930 
C                  -2.39310613   -0.00000370   -0.00160514 


