%nprocshared=2 
%mem=2GB 
# 6-31+g(d) scrf=(solvent=water,pcm) 
int=ultrafine m062x scf=tight

tmpdir/M1_conf_43_2.gjf 

0 1
Cl                  2.12368430   -0.00000387    0.00041715 
H                   0.69012066   -0.00000140   -0.00064808 


