%nprocshared=2 
%mem=2GB 
# 6-31+g(d) scrf=(solvent=water,pcm) 
int=ultrafine m062x scf=tight

tmpdir/M1_conf_77_2.gjf 

0 1
Cl                  2.15681824   -0.00000246    0.00043166 
H                   0.53582551    0.00000184   -0.00077383 


