%nprocshared=2 
%mem=2GB 
# 6-31+g(d) scrf=(solvent=water,pcm) 
int=ultrafine m062x scf=tight

tmpdir/M1_conf_55_0.gjf 

-1 1
N                  -3.46896409   -0.00000406    0.00113517 
C                  -2.29743821    0.00001245   -0.00121877 


