%nprocshared=2 
%mem=2GB 
# 6-31+g(d) scrf=(solvent=water,pcm) 
int=ultrafine m062x scf=tight

tmpdir/M1_conf_106_2.gjf 

0 1
Cl                  2.18351261   -0.00000322    0.00043020 
H                   0.40126545    0.00000270   -0.00076165 


