%nprocshared=2 
%mem=2GB 
# 6-31+g(d) scrf=(solvent=water,pcm) 
int=ultrafine m062x scf=tight

tmpdir/M1_conf_70_2.gjf 

0 1
Cl                  2.15015271   -0.00000285    0.00044331 
H                   0.56709301    0.00000153   -0.00075789 


