%nprocshared=2 
%mem=2GB 
# 6-31+g(d) scrf=(solvent=water,pcm) 
int=ultrafine m062x scf=tight

tmpdir/M1_conf_62_0.gjf 

-1 1
N                  -3.45734916   -0.00000386    0.00111376 
C                  -2.28607783    0.00001028   -0.00116262 


