%nprocshared=2 
%mem=2GB 
# 6-31+g(d) scrf=(solvent=water,pcm) 
int=ultrafine m062x scf=tight

tmpdir/M1_conf_100_1.gjf 

0 1
C                  -0.14109957    0.00000431   -0.00116003 
H                  -0.09969004    0.93405156   -0.53574638 
H                  -0.10055027   -0.00392052    1.07502450 
H                  -0.09969390   -0.93010548   -0.54256642 
H                   1.35138742   -0.00000050   -0.00013533 


