%nprocshared=2 
%mem=2GB 
# 6-31+g(d) scrf=(solvent=water,pcm) 
int=ultrafine m062x scf=tight

tmpdir/M1_conf_21_0.gjf 

-1 1
N                  -3.57115624   -0.00000650    0.00137842 
C                  -2.39685853   -0.00000591   -0.00159844 


