%nprocshared=2 
%mem=2GB 
# 6-31+g(d) scrf=(solvent=water,pcm) 
int=ultrafine m062x scf=tight

tmpdir/M1_conf_104_0.gjf 

-1 1
N                  -3.38716433   -0.00000300    0.00095486 
C                  -2.21431339    0.00000636   -0.00094629 


