%nprocshared=2 
%mem=2GB 
# 6-31+g(d) scrf=(solvent=water,pcm) 
int=ultrafine m062x scf=tight

tmpdir/M1_conf_13_2.gjf 

0 1
Cl                  2.15631922   -0.00000347    0.00049720 
H                   0.79398712    0.00002320   -0.00084965 


