%nprocshared=2 
%mem=2GB 
# 6-31+g(d) scrf=(solvent=water,pcm) 
int=ultrafine m062x scf=tight

tmpdir/M1_conf_76_2.gjf 

0 1
Cl                  2.15587947   -0.00000255    0.00043416 
H                   0.54029890    0.00000180   -0.00077111 


