%nprocshared=2 
%mem=2GB 
# 6-31+g(d) scrf=(solvent=water,pcm) 
int=ultrafine m062x scf=tight

tmpdir/M1_conf_44_1.gjf 

0 1
C                   0.21787897   -0.00000054   -0.00100516 
H                  -0.06598449    0.90575854   -0.51941072 
H                  -0.06629327   -0.00381740    1.04243086 
H                  -0.06599370   -0.90194529   -0.52601258 
H                   1.44465680   -0.00000264   -0.00008826 


