%nprocshared=2 
%mem=2GB 
# 6-31+g(d) scrf=(solvent=water,pcm) 
int=ultrafine m062x scf=tight

tmpdir/M1_conf_97_2.gjf 

0 1
Cl                  2.17492564   -0.00000310    0.00043292 
H                   0.44614018    0.00000236   -0.00077322 


