%nprocshared=2 
%mem=2GB 
# 6-31+g(d) scrf=(solvent=water,pcm) 
int=ultrafine m062x scf=tight

tmpdir/M1_conf_85_2.gjf 

0 1
Cl                  2.16420132   -0.00000251    0.00042722 
H                   0.49998693    0.00000205   -0.00078100 


