%nprocshared=2 
%mem=2GB 
# 6-31+g(d) scrf=(solvent=water,pcm) 
int=ultrafine m062x scf=tight

tmpdir/M1_conf_69_2.gjf 

0 1
Cl                  2.14918009   -0.00000288    0.00044421 
H                   0.57154922    0.00000148   -0.00075586 


