%nprocshared=2 
%mem=2GB 
# 6-31+g(d) scrf=(solvent=water,pcm) 
int=ultrafine m062x scf=tight

tmpdir/M1_conf_60_0.gjf 

-1 1
N                  -3.46062001   -0.00000391    0.00111947 
C                  -2.28929787    0.00001081   -0.00117765 


