%nprocshared=2 
%mem=2GB 
# 6-31+g(d) scrf=(solvent=water,pcm) 
int=ultrafine m062x scf=tight

tmpdir/M1_conf_73_2.gjf 

0 1
Cl                  2.15303885   -0.00000273    0.00043966 
H                   0.55370717    0.00000167   -0.00076414 


