%nprocshared=2 
%mem=2GB 
# 6-31+g(d) scrf=(solvent=water,pcm) 
int=ultrafine m062x scf=tight

tmpdir/M1_conf_112_0.gjf 

-1 1
N                  -3.37350572   -0.00000282    0.00092032 
C                  -2.20006899    0.00000627   -0.00091885 


