%nprocshared=2 
%mem=2GB 
# 6-31+g(d) scrf=(solvent=water,pcm) 
int=ultrafine m062x scf=tight

tmpdir/M1_conf_14_2.gjf 

0 1
Cl                  2.15432898   -0.00000353    0.00048910 
H                   0.79202215    0.00002218   -0.00081061 


