%nprocshared=2 
%mem=2GB 
# 6-31+g(d) scrf=(solvent=water,pcm) 
int=ultrafine m062x scf=tight

tmpdir/M1_conf_4_0.gjf 

-1 1
N                  -3.64731338   -0.00000338    0.00154577 
C                  -2.47209702   -0.00004715   -0.00068509 


