%nprocshared=2 
%mem=2GB 
# 6-31+g(d) scrf=(solvent=water,pcm) 
int=ultrafine m062x scf=tight

tmpdir/M1_conf_113_2.gjf 

0 1
Cl                  2.18934626   -0.00000326    0.00042615 
H                   0.36991039    0.00000293   -0.00075339 


