%nprocshared=2 
%mem=2GB 
# 6-31+g(d) scrf=(solvent=water,pcm) 
int=ultrafine m062x scf=tight

tmpdir/M1_conf_42_1.gjf 

0 1
C                   0.22975001   -0.00000062   -0.00098346 
H                  -0.06138340    0.90429537   -0.51854446 
H                  -0.06165169   -0.00380434    1.04077083 
H                  -0.06138832   -0.90049534   -0.52512494 
H                   1.44795844   -0.00000275   -0.00008401 


