%nprocshared=2 
%mem=2GB 
# 6-31+g(d) scrf=(solvent=water,pcm) 
int=ultrafine m062x scf=tight

tmpdir/M1_conf_79_0.gjf 

-1 1
N                  -3.42994781   -0.00000383    0.00109467 
C                  -2.25854312    0.00000605   -0.00102976 


