%nprocshared=2 
%mem=2GB 
# 6-31+g(d) scrf=(solvent=water,pcm) 
int=ultrafine m062x scf=tight

tmpdir/M1_ref_2.gjf 

0 1
Cl                  0.00000000    0.00000000    0.66127531 
H                   0.00000000    0.00000000   -0.69502347 


