%nprocshared=2 
%mem=2GB 
# 6-31+g(d) scrf=(solvent=water,pcm) 
int=ultrafine m062x scf=tight

tmpdir/M2_ref_0.gjf 

-1 1
N                   0.00000000    0.00000000  -19.45716074 
C                   0.00000000    0.00000000  -20.63331230 


