%chk=12-Ts1.chk
%nprocshared=16
%mem=16GB
# 6-31+g(d,p) scrf=(smd,solvent=toluene) geom=connectivity m06l

title card

0 1
 Al                 0.00000000    0.00000000    0.00000000
 N                  0.00000000    0.00000000    1.95124933
 N                  1.95479611    0.00000000   -0.16337355
 C                  1.07932763    0.05393076    2.81335773
 C                 -1.04542139   -0.45388251    2.70222238
 O                 -0.18172376   -1.89580816   -0.10329973
 O                 -0.23042143   -0.42911057   -1.88634587
 C                  2.81605505   -1.06005954    0.03592304
 C                  2.72853591    1.02057777   -0.62032323
 C                  0.75312020   -0.35631100    4.08732955
 H                  2.04208962    0.38353385    2.43989407
 C                 -2.38936338   -0.62776809    2.30486274
 C                 -0.63118032   -0.70261802    4.04669794
 C                 -0.25235347   -2.12745591   -1.38086210
 C                  0.58563444   -0.04591324   -2.96359819
 C                  4.11889454   -0.74297733   -0.28449301
 H                  2.41385259   -2.00109256    0.39079183
 C                  2.32492038    2.33416004   -0.93756583
 C                  4.09649186    0.61606507   -0.72104636
 H                  1.41845869   -0.40313734    4.93978203
 C                 -3.29991994   -1.09588138    3.26761170
 C                 -2.85069249   -0.18722784    1.01989463
 C                 -1.56769454   -1.17954954    4.97277201
 C                 -1.57451103   -2.58349811   -1.95979269
 O                  0.87974771   -2.69356569   -1.87529419
 H                  0.10742796   -0.30230554   -3.92000089
 H                  1.57641974   -0.52139665   -2.92114209
 H                  0.73283325    1.04151880   -2.94287187
 H                  4.97752793   -1.39849340   -0.21528711
 C                  3.31064442    3.23140155   -1.38694203
 C                  0.98415415    2.78629335   -0.72366508
 C                  5.04478616    1.53714006   -1.18162122
 C                 -2.89114998   -1.38255786    4.57325334
 H                 -4.34279660   -1.21905372    2.98322051
 N                 -2.06610954    0.22518257    0.07286338
 H                 -3.93713103   -0.13651595    0.86907224
 H                 -1.27370134   -1.38406556    6.00021074
 C                 -1.78123153   -4.09612739   -1.83549975
 H                 -2.34429081   -2.03553629   -1.41007740
 H                 -1.65735488   -2.28145931   -3.01079601
 C                  0.86586669   -3.32951942   -3.17277965
 C                  4.64404870    2.83505029   -1.51527900
 H                  3.01845848    4.25211639   -1.62482863
 N                 -0.00820861    2.04084202   -0.32935495
 H                  0.80634212    3.86034970   -0.86082277
 H                  6.09114155    1.25310675   -1.27437138
 H                 -3.61865435   -1.74861051    5.29227814
 C                 -2.67351493    0.93266009   -1.04589892
 C                 -1.15791369   -4.88125555   -2.98505423
 H                 -2.85742964   -4.29892108   -1.81355425
 H                 -1.38602685   -4.44564463   -0.87193107
 C                  0.35636191   -4.75474326   -3.09766530
 H                  1.91286300   -3.30535285   -3.48664197
 H                  0.29252149   -2.72576064   -3.88807157
 H                  5.38218211    3.54983186   -1.86795942
 C                 -1.24159697    2.75418411    0.01359803
 C                 -2.44926318    2.46226550   -0.89483513
 H                 -2.20254541    0.57719728   -1.96523785
 H                 -3.74990856    0.71971430   -1.10200980
 H                 -1.42346479   -5.94074629   -2.89170315
 H                 -1.61140773   -4.53336630   -3.92480741
 H                  0.69806825   -5.27974676   -3.99782841
 H                  0.84855695   -5.24577908   -2.24817931
 H                 -1.49473167    2.47430243    1.04430297
 H                 -1.05915137    3.83690731    0.00899440
 C                 -2.23406573    3.07204743   -2.27647349
 C                 -3.66528839    3.09274764   -0.21789585
 H                 -2.14257073    4.16274371   -2.21911986
 H                 -1.32594779    2.67880472   -2.74891181
 H                 -3.07559996    2.84261841   -2.93966855
 H                 -3.50319266    4.15868557   -0.02151976
 H                 -3.87908700    2.60796412    0.74271291
 H                 -4.55514228    2.99895341   -0.84899671

 1 3 1.0 2 1.0 7 1.0
 2 4 1.0 5 1.0
 3 8 1.0 9 1.0
 4 10 2.0 11 1.0
 5 13 2.0 12 1.0
 6 14 2.0
 7 15 1.0
 8 16 2.0 17 1.0
 9 19 2.0 18 1.0
 10 13 1.0 20 1.0
 11
 12 21 2.0 22 1.0
 13 23 1.0
 14 25 1.0 24 1.0
 15 28 1.0 27 1.0 26 1.0
 16 19 1.0 29 1.0
 17
 18 30 2.0 31 1.0
 19 32 1.0
 20
 21 33 1.0 34 1.0
 22 36 1.0 35 2.0
 23 33 2.0 37 1.0
 24 40 1.0 39 1.0 38 1.0
 25 41 1.0
 26
 27
 28
 29
 30 42 1.0 43 1.0
 31 45 1.0 44 2.0
 32 42 2.0 46 1.0
 33 47 1.0
 34
 35 48 1.0
 36
 37
 38 50 1.0 51 1.0 49 1.0
 39
 40
 41 52 1.0 53 1.0 54 1.0
 42 55 1.0
 43
 44 56 1.0
 45
 46
 47
 48 57 1.0 59 1.0 58 1.0
 49 61 1.0 60 1.0 52 1.0
 50
 51
 52 63 1.0 62 1.0
 53
 54
 55
 56 65 1.0 64 1.0 57 1.0
 57 66 1.0 67 1.0
 58
 59
 60
 61
 62
 63
 64
 65
 66 70 1.0 68 1.0 69 1.0
 67 71 1.0 73 1.0 72 1.0
 68
 69
 70
 71
 72
 73

