%chk=Rc.chk
%nprocshared=8
%mem=8GB
# ub3lyp/6-31+g(d) geom=connectivity

title card

0 3
 C                  2.76086323   -0.64577722   -0.05543502
 C                  1.56913860   -1.37271489   -0.06897614
 C                  0.35803021   -0.69509548   -0.06228099
 C                  0.33039499    0.70663737   -0.01689504
 C                  1.51456879    1.42595753    0.00431597
 C                  2.73397309    0.74492017   -0.01998226
 C                 -1.03309740   -1.31841760   -0.02875126
 C                 -1.07240839    1.28243937    0.02074375
 C                 -1.80408589    0.68398541    1.22253756
 C                 -1.56036485   -0.78282937    1.30257086
 H                  3.71236256   -1.16918432   -0.07323601
 H                  1.58781592   -2.45944017   -0.09245997
 H                  1.49361496    2.51222136    0.04104510
 H                  3.66448683    1.30480451   -0.00921086
 H                 -0.99835638   -2.40914399   -0.07674181
 H                 -1.08734547    2.37420030    0.00010213
 C                 -1.87263393    0.65396624   -1.11889449
 C                 -1.85834667   -0.68255240   -1.13486030
 H                 -2.40082691   -1.28897047   -1.85186107
 H                 -2.45157130    1.26792245   -1.80134370
 H                 -2.80967507    1.06898249    1.39913883
 H                 -1.10668637   -1.20451272    2.20001314

 1 2 2.0 6 1.0 11 1.0
 2 3 1.0 12 1.0
 3 4 2.0 7 1.0
 4 5 1.0 8 1.0
 5 6 2.0 13 1.0
 6 14 1.0
 7 10 1.0 15 1.0 18 1.0
 8 9 1.0 16 1.0 17 1.0
 9 10 1.0 21 1.0
 10 22 1.0
 11
 12
 13
 14
 15
 16
 17 18 2.0 20 1.0
 18 19 1.0
 19
 20
 21
 22

