%nprocshared=2 
%mem=2GB 
# hf/3-21g 

tmpdir/M1_conf_10_1.gjf 

0 1
Cl                  0.07175740    0.00104550    2.73033170 
H                  -0.20084739   -0.00899889    1.17621303 


