%nprocshared=2 
%mem=2GB 
# hf/3-21g 

tmpdir/M1_conf_5_1.gjf 

0 1
Cl                  0.07649690   -0.00027660    2.73618860 
H                  -0.21646907    0.00927038    1.15776810 


