%nprocshared=2 
%mem=2GB 
# hf/3-21g 

tmpdir/M1_conf_172_2.gjf 

-1 1
Cl                 -0.01359930   -0.00233190   -2.29793520 


