%nprocshared=2 
%mem=2GB 
# hf/3-21g 

tmpdir/M1_conf_221_0.gjf 

0 1
C                  -0.30514890    0.14219020   -0.45307720 
H                  -0.46372430    1.22344430   -0.15929700 
H                   0.48624300   -0.25016330    0.12531050 
H                  -1.02159990   -0.55099810   -0.43782280 
H                  -0.06770215    0.03116073    1.57033005 


