%nprocshared=2 
%mem=2GB 
# hf/3-21g 

tmpdir/M1_conf_39_1.gjf 

0 1
Cl                  0.03916600    0.00865130    2.62968590 
H                  -0.10916601   -0.04015661    1.24778590 


