%nprocshared=2 
%mem=2GB 
# hf/3-21g 

tmpdir/M1_conf_230_2.gjf 

-1 1
Cl                  0.08051260   -0.02595780   -2.56536240 


