%nprocshared=2 
%mem=2GB 
# hf/3-21g 

tmpdir/M1_conf_234_1.gjf 

0 1
Cl                  0.08031610   -0.03430590    2.78557310 
H                  -0.26420206    0.08949422    0.28797336 


