%nprocshared=2 
%mem=2GB 
# hf/3-21g 

tmpdir/M1_conf_96_1.gjf 

0 1
Cl                  0.00040830    0.02271080    2.43720630 
H                   0.00898197   -0.08034165    1.05244733 


