%nprocshared=2 
%mem=2GB 
# hf/3-21g 

tmpdir/M1_conf_41_0.gjf 

0 1
C                  -0.14526570   -0.05854470    0.76460710 
H                  -0.18754710    0.89064950    0.29886330 
H                   0.56047040   -0.69220800    0.51276400 
H                  -1.13701270   -0.45457980    0.79063450 
H                  -0.02797845   -0.01449294    1.96657750 


