%nprocshared=2 
%mem=2GB 
# hf/3-21g 

tmpdir/M1_conf_222_1.gjf 

0 1
Cl                  0.06523420   -0.03072640    2.69914400 
H                  -0.21743966    0.09381010    0.32336773 


