%nprocshared=2 
%mem=2GB 
# hf/3-21g 

tmpdir/M1_conf_115_2.gjf 

-1 1
Cl                 -0.03214780    0.02253760   -2.53925270 


