%nprocshared=2 
%mem=2GB 
# hf/3-21g 

tmpdir/M1_conf_295_1.gjf 

0 1
Cl                  0.13389310   -0.04420710    3.07728720 
H                  -0.39309057    0.09814740    0.15032572 


