%nprocshared=2 
%mem=2GB 
# hf/3-21g 

tmpdir/M1_conf_287_1.gjf 

0 1
Cl                  0.12869920   -0.04368670    3.05371400 
H                  -0.37409500    0.10922431    0.16295858 


