%nprocshared=2 
%mem=2GB 
# hf/3-21g 

tmpdir/M1_conf_112_1.gjf 

0 1
Cl                 -0.02769820    0.01980910    2.39620910 
H                   0.09187085   -0.05234120    0.90831573 


