%nprocshared=2 
%mem=2GB 
# hf/3-21g 

tmpdir/M1_conf_204_2.gjf 

-1 1
Cl                  0.04325440   -0.01607440   -2.37843920 


