%nprocshared=2 
%mem=2GB 
# hf/3-21g 

tmpdir/M1_conf_237_1.gjf 

0 1
Cl                  0.08369000   -0.03501950    2.80546210 
H                  -0.27944788    0.10152432    0.24878347 


