%nprocshared=2 
%mem=2GB 
# hf/3-21g 

tmpdir/M1_conf_210_2.gjf 

-1 1
Cl                  0.05566120   -0.02351850   -2.43182100 


