%nprocshared=2 
%mem=2GB 
# hf/3-21g 

tmpdir/M1_conf_72_2.gjf 

-1 1
Cl                  0.00924960    0.02355190   -2.82310640 


