%nprocshared=2 
%mem=2GB 
# hf/3-21g 

tmpdir/M1_conf_151_1.gjf 

0 1
Cl                 -0.04193680    0.01011290    2.34395000 
H                   0.13311836   -0.02435963    0.57119215 


