%nprocshared=2 
%mem=2GB 
# hf/3-21g 

tmpdir/M1_conf_236_0.gjf 

0 1
C                  -0.39076990    0.14475910   -0.56418830 
H                  -0.51036300    1.14526910   -0.58541660 
H                   0.54401100   -0.20194500   -0.03516620 
H                  -1.26830080   -0.59930650   -0.18280110 
H                  -0.08619063    0.02923112    1.59980548 


