%nprocshared=2 
%mem=2GB 
# hf/3-21g 

tmpdir/M1_conf_192_1.gjf 

0 1
Cl                  0.01832550   -0.01715010    2.46614200 
H                  -0.04701425    0.05033487    0.27538061 


