%nprocshared=2 
%mem=2GB 
# hf/3-21g 

tmpdir/M1_conf_22_0.gjf 

0 1
C                  -0.23022330   -0.06005000    0.75175100 
H                  -0.10532100    0.96948240    0.59946010 
H                   0.49349470   -0.62206310    0.38715790 
H                  -1.32021790   -0.44982940    0.65385710 
H                  -0.04459293   -0.01452955    1.98803641 


