%nprocshared=2 
%mem=2GB 
# hf/3-21g 

tmpdir/M1_conf_288_1.gjf 

0 1
Cl                  0.12937660   -0.04377710    3.05695560 
H                  -0.37101129    0.10139857    0.16141337 


