%nprocshared=2 
%mem=2GB 
# hf/3-21g 

tmpdir/M1_conf_193_1.gjf 

0 1
Cl                  0.02001740   -0.01764950    2.47330240 
H                  -0.05256572    0.04923771    0.26961909 


