%nprocshared=2 
%mem=2GB 
# hf/3-21g 

tmpdir/M1_conf_49_1.gjf 

0 1
Cl                  0.03538140    0.02090640    2.65683470 
H                  -0.11613442   -0.06452930    1.15152250 


