%nprocshared=2 
%mem=2GB 
# hf/3-21g 

tmpdir/M1_conf_299_2.gjf 

-1 1
Cl                  0.11682080   -0.01446980   -2.74357800 


