%nprocshared=2 
%mem=2GB 
# hf/3-21g 

tmpdir/M1_conf_245_2.gjf 

-1 1
Cl                  0.08550020   -0.02809970   -2.58735170 


