%nprocshared=2 
%mem=2GB 
# hf/3-21g 

tmpdir/M1_conf_147_1.gjf 

0 1
Cl                 -0.04524990    0.01179070    2.34710700 
H                   0.15570246   -0.05455782    0.58980201 


