%nprocshared=2 
%mem=2GB 
# hf/3-21g 

tmpdir/M1_conf_290_2.gjf 

-1 1
Cl                  0.11912620   -0.02258650   -2.75413140 


