%nprocshared=2 
%mem=2GB 
# hf/3-21g 

tmpdir/M1_conf_48_2.gjf 

-1 1
Cl                  0.02905950    0.01996110   -2.92150910 


