%nprocshared=2 
%mem=2GB 
# hf/3-21g 

tmpdir/M1_conf_75_1.gjf 

0 1
Cl                  0.01732670    0.02255170    2.61737360 
H                  -0.03290779   -0.06216128    1.01378602 


