%nprocshared=2 
%mem=2GB 
# hf/3-21g 

tmpdir/M1_conf_170_0.gjf 

0 1
C                   0.08467210    0.00710930   -0.15899040 
H                   0.01060310    0.98453230   -0.07980750 
H                   1.07343080   -0.43484160    0.06606630 
H                  -0.84384140   -0.43297500    0.27445460 
H                   0.01815408   -0.00055797    1.45396861 


