%nprocshared=2 
%mem=2GB 
# hf/3-21g 

tmpdir/M1_conf_149_0.gjf 

0 1
C                   0.21293500   -0.05509310    0.00611588 
H                   0.17549600    1.02234000    0.01271000 
H                   1.14067000   -0.54429700   -0.04269920 
H                  -0.86108700   -0.58592000    0.08169860 
H                   0.04774865   -0.01258975    1.51122178 


