%nprocshared=2 
%mem=2GB 
# hf/3-21g 

tmpdir/M1_conf_207_2.gjf 

-1 1
Cl                  0.05000880   -0.01960700   -2.40383510 


