%nprocshared=2 
%mem=2GB 
# hf/3-21g 

tmpdir/M1_conf_155_2.gjf 

-1 1
Cl                 -0.03929960    0.00562620   -2.32346520 


