%nprocshared=2 
%mem=2GB 
# hf/3-21g 

tmpdir/M1_ref_2.gjf 

-1 1
Cl                -20.00000000    0.00000000    0.00000000 


