%nprocshared=2 
%mem=2GB 
# hf/3-21g 

tmpdir/M1_ref_1.gjf 

0 1
Cl                  0.68955800   -0.00001400    0.00000000 
H                  -0.73803522    0.00000637    0.00000000 


