%nprocshared=2 
%mem=2GB 
# hf/3-21g 

tmpdir/M2_conf_114_5.gjf 

0 1
H                   0.00000000    0.00000000    0.00000000 
C                   1.07340000    0.00000000    0.00000000 
H                   1.72637000    0.00000000    0.85220000 
H                   1.48425000   -0.77840000   -0.61474000 
H                   1.41406000    1.05173000   -0.50978000 


