%chk=bnmoe.chk
%nprocshared=16
%mem=16GB
#MP2/6-31G(d) IOp(3/125=0333312000) geom=connectivity

title

0 1
 C                 -0.60648200    1.61121400    0.34594700
 C                 -1.89970200    1.18401600   -0.42362600
 C                 -2.80943300    0.09912500    0.20928300
 C                 -2.43447500   -1.37142600   -0.12932500
 C                  0.76845600    1.14678000   -0.20198100
 C                  1.27729300   -0.22630300    0.32117600
 H                 -0.69478600    1.32204100    1.40230700
 H                 -1.63877100    0.88728200   -1.44823000
 H                 -2.80456000    0.21850700    1.30042000
 H                 -0.58315000    2.70805500    0.34805200
 H                 -2.52022500    2.08294600   -0.52774400
 H                 -3.84544300    0.26372000   -0.11570400
 H                 -3.01433300   -2.06339200    0.49446800
 H                 -2.69653400   -1.59376100   -1.17314100
 H                  1.52179200    1.90551600    0.04701100
 H                  0.73576000    1.07978600   -1.29627400
 H                  1.51941000   -0.13440500    1.39535300
 C                  0.16748500   -1.16448500    0.15455200
 C                 -0.99263600   -1.49660400    0.05981100
 N                  2.22391800   -0.79147200   30.00377700
 N                  2.46787600    0.32059500   29.52310100
 N                  2.78512500    1.28786200   29.00411000
 C                  1.15614900   -0.81771200   31.04647900
 H                  1.14245600   -1.85735800   31.38092600
 H                  1.45905300   -0.19669200   31.89953500
 C                 -0.20298400   -0.39175000   30.53635000
 C                 -0.93570400   -1.23058000   29.68505200
 C                 -0.73539200    0.85498100   30.88218500
 C                 -2.17630000   -0.83017500   29.19302300
 H                 -0.52575800   -2.19820500   29.40543500
 C                 -1.97939900    1.25816700   30.39149200
 H                 -0.17602800    1.51346300   31.54320800
 C                 -2.70147000    0.41622800   29.54607600
 H                 -2.73598500   -1.49051300   28.53601100
 H                 -2.38170600    2.22826300   30.67045200
 H                 -3.66985700    0.72719100   29.16358400
 O                  2.43496600   -0.67560500   -0.37598600
 C                  3.63468400   -0.04736200    0.02948800
 H                  4.44739000   -0.55818900   -0.49361000
 H                  3.66710900    1.02056800   -0.23268300
 H                  3.79547400   -0.14355500    1.11571600

 1 2 1.0 5 1.0 7 1.0 10 1.0
 2 3 1.0 8 1.0 11 1.0
 3 4 1.0 9 1.0 12 1.0
 4 13 1.0 14 1.0 19 1.0
 5 6 1.0 15 1.0 16 1.0
 6 17 1.0 18 1.0 37 1.0
 7
 8
 9
 10
 11
 12
 13
 14
 15
 16
 17
 18 19 3.0
 19
 20 21 1.0 23 1.0
 21 22 3.0
 22
 23 24 1.0 25 1.0 26 1.0
 24
 25
 26 27 1.0 28 2.0
 27 29 2.0 30 1.0
 28 31 1.0 32 1.0
 29 33 1.0 34 1.0
 30
 31 33 2.0 35 1.0
 32
 33 36 1.0
 34
 35
 36
 37 38 1.0
 38 39 1.0 40 1.0 41 1.0
 39
 40
 41
