%chk=yne-pro.chk
%nprocshared=16
%mem=16GB
#p b3lyp/6-31g(d) em=gd3

tmpdir/Subs_0_0.gjf

0 1
 C                  3.80195200   -0.40788300   -1.35112900
 C                  1.12945200   -2.04597300   -0.15946000
 C                  1.63232800   -0.66013600    0.07121300
 C                  2.72807200    0.03560500   -0.40818700
 H                  3.94479400   -1.49316200   -1.31471500
 H                  4.75017600    0.07281500   -1.09278500
 H                  3.56688600   -0.13752700   -2.38846000
 H                  1.81417100   -2.59012700   -0.81517800
 H                  1.04440700   -2.60896400    0.77893300
 H                  0.13833900   -2.03910100   -0.62881000

