%chk=5-T.chk
%nprocshared=24
%mem=24GB
# b3lyp scrf=(cpcm,solvent=diethylether,read) geom=connectivity def2tzvp
empiricaldispersion=gd3

title card

0 1
 Fe                -0.28017000   -0.00047000   -0.01769000
 N                  0.49736000    0.75824000    1.66306000
 N                  0.11923000   -1.86386000    0.58450000
 N                 -0.84077000    1.86832000   -0.55237000
 N                 -1.21184000   -0.76659000   -1.63920000
 C                  0.71731000    2.08081000    1.96545000
 C                 -0.01310000   -3.02566000   -0.13585000
 C                  0.94915000    0.03728000    2.73801000
 C                  0.61967000   -2.22492000    1.80791000
 C                 -0.45850000    3.05162000    0.02887000
 C                 -1.18379000   -2.06591000   -2.07956000
 C                 -1.65378000    2.20121000   -1.60667000
 C                 -1.97582000   -0.06999000   -2.54176000
 C                  1.34075000    2.19576000    3.26339000
 C                  0.43129000   -4.15230000    0.65193000
 C                  1.46478000    0.92946000    3.75084000
 C                  0.80286000   -3.65732000    1.86524000
 C                 -1.03916000    4.16542000   -0.68342000
 C                 -1.94173000   -2.19322000   -3.30231000
 C                 -1.79608000    3.63680000   -1.68663000
 C                 -2.44899000   -0.95871000   -3.57869000
 H                  1.62160000    3.13060000    3.73223000
 H                  0.43227000   -5.18042000    0.31216000
 H                  1.87860000    0.61027000    4.69932000
 H                  1.18323000   -4.19526000    2.72468000
 H                 -0.89188000    5.20712000   -0.42680000
 H                 -2.07425000   -3.11575000   -3.85357000
 H                 -2.39051000    4.15695000   -2.42756000
 H                 -3.07651000   -0.65836000   -4.40867000
 C                  0.30759000    3.15894000    1.18699000
 C                 -0.58457000   -3.12360000   -1.40049000
 C                 -2.21497000    1.30213000   -2.51066000
 C                  0.96135000   -1.35013000    2.83302000
 H                  0.54066000    4.15670000    1.54627000
 H                 -0.63233000   -4.10765000   -1.85682000
 H                 -2.84002000    1.71449000   -3.29718000
 H                  1.34290000   -1.78374000    3.75257000
 C                 -2.73522000    0.74464000    1.81577000
 C                 -3.06820000   -1.24075000    1.02162000
 C                 -4.15007000   -0.95710000    1.81171000
 N                 -2.19351000   -0.17283000    1.03212000
 N                 -3.92026000    0.31089000    2.30854000
 H                 -5.03574000   -1.52051000    2.06057000
 H                 -2.85633000   -2.13086000    0.44991000
 H                 -2.30841000    1.70923000    2.04306000
 H                 -4.52568000    0.82830000    2.93061000
 C                  1.38345000    0.21899000   -1.05159000
 C                  2.68682000   -0.14438000   -0.52165000
 O                  2.94042000   -0.77195000    0.50681000
 O                  3.72261000    0.29734000   -1.32761000
 C                  5.04535000   -0.04077000   -0.88815000
 H                  5.13671000   -1.13036000   -0.80901000
 H                  5.21514000    0.37240000    0.11286000
 C                  6.02618000    0.52880000   -1.89954000
 H                  7.05339000    0.29245000   -1.59978000
 H                  5.85193000    0.10561000   -2.89469000
 H                  5.92932000    1.61770000   -1.96740000
 C                  1.37680000    0.88300000   -2.40287000
 H                  1.72990000    1.92451000   -2.32880000
 H                  2.06256000    0.37933000   -3.09637000
 H                  0.38581000    0.90638000   -2.85302000
 C                 -1.11697000   -1.25763000  -20.00111000
 C                 -0.22776000   -0.16743000  -20.00020000
 C                 -0.78437000    1.12649000  -19.99907000
 C                 -2.16600000    1.32406000  -19.99885000
 C                 -3.02858000    0.22456000  -19.99976000
 C                 -2.50142000   -1.06798000  -20.00089000
 H                 -0.72410000   -2.27220000  -20.00202000
 H                 -0.13245000    1.99853000  -19.99835000
 H                 -2.57041000    2.33322000  -19.99796000
 H                 -4.10502000    0.37566000  -19.99960000
 H                 -3.16670000   -1.92783000  -20.00162000
 Si                 1.64251000   -0.43378000  -20.00049000
 H                  1.85684000   -1.91340000  -20.00218000
 C                  2.43316000    0.30519000  -21.55164000
 H                  3.51634000    0.13397000  -21.55663000
 H                  2.01671000   -0.14240000  -22.46111000
 H                  2.26674000    1.38781000  -21.60567000
 C                  2.43313000    0.30160000  -18.44761000
 H                  2.01672000   -0.14810000  -17.53917000
 H                  3.51633000    0.13037000  -18.44303000
 H                  2.26672000    1.38409000  -18.39108000

 1 47 2.0
 2 6 1.0 8 2.0
 3 7 2.0 9 1.0
 4 10 2.0 12 1.0
 5 11 1.0 13 2.0
 6 14 1.0 30 2.0
 7 15 1.0 31 1.0
 8 16 1.0 33 1.0
 9 17 1.0 33 2.0
 10 18 1.0 30 1.0
 11 19 1.0 31 2.0
 12 20 1.0 32 2.0
 13 21 1.0 32 1.0
 14 16 2.0 22 1.0
 15 17 2.0 23 1.0
 16 24 1.0
 17 25 1.0
 18 20 2.0 26 1.0
 19 21 2.0 27 1.0
 20 28 1.0
 21 29 1.0
 22
 23
 24
 25
 26
 27
 28
 29
 30 34 1.0
 31 35 1.0
 32 36 1.0
 33 37 1.0
 34
 35
 36
 37
 38 41 2.0 42 1.0 45 1.0
 39 40 2.0 41 1.0 44 1.0
 40 42 1.0 43 1.0
 41
 42 46 1.0
 43
 44
 45
 46
 47 48 1.0 58 1.0
 48 49 2.0 50 1.0
 49
 50 51 1.0
 51 52 1.0 53 1.0 54 1.0
 52
 53
 54 55 1.0 56 1.0 57 1.0
 55
 56
 57
 58 59 1.0 60 1.0 61 1.0
 59
 60
 61
 62 63 1.0 67 2.0 68 1.0
 63 64 2.0 73 1.0
 64 65 1.0 69 1.0
 65 66 2.0 70 1.0
 66 67 1.0 71 1.0
 67 72 1.0
 68
 69
 70
 71
 72
 73 74 1.0 75 1.0 79 1.0
 74
 75 76 1.0 77 1.0 78 1.0
 76
 77
 78
 79 80 1.0 81 1.0 82 1.0
 80
 81
 82

eps=4


