%chk=hehe.chk
#xyz

title

0 1
Fe 0.0000000 0.0000000 0.0759180
N 1.4086788 1.4957373 0.4671987
N 1.4086788 -1.4957373 0.4671987
N -1.4086788 -1.4957373 0.4671987
N -1.4086788 1.4957373 0.4671987
C 1.2418347 2.8123064 0.4738591
C 0.0000000 3.4692878 0.4459394
C -1.2418347 2.8123064 0.4738591
C 1.2418347 -2.8123064 0.4738591
C 0.0000000 -3.4692878 0.4459394
C -1.2418347 -2.8123064 0.4738591
H 2.1348324 3.4596542 0.4991966
H 0.0000000 4.5594708 0.4516940
H -2.1348324 3.4596542 0.4991966
H -2.3991034 1.2436566 0.4687491
H 2.3991034 1.2436566 0.4687491
H 2.3991034 -1.2436566 0.4687491
H 2.1348324 -3.4596542 0.4991966
H 0.0000000 -4.5594708 0.4516940
H -2.1348324 -3.4596542 0.4991966
H -2.3991034 -1.2436566 0.4687491
C 0.0000000 0.0000000 -2.0076496
N 0.0000000 0.0000000 -3.1837319
