%chk=react.chk
%nprocshared=16
%mem=16GB
#p mp2 geom=connectivity iop(3/125=0333312000)

title

0 1
 C                 -1.00027774   -1.46749661    0.05933167
 C                  0.15994238   -1.13548844    0.15324366
 C                  1.26760420   -0.19930452    0.31752859
 H                  1.13322682    0.35711193    1.22154377
 H                  2.18872451   -0.74159677    0.36607220
 H                  1.29287963    0.47288054   -0.51459424
 C                 -2.44524922   -1.34204666   -0.13021524
 H                 -2.88700030   -2.31615392   -0.15972842
 H                 -2.86438317   -0.78478353    0.68137859
 H                 -2.64136600   -0.83343542   -1.05095017

 1 2 3.0 7 1.0
 2 3 1.0
 3 4 1.0 5 1.0 6 1.0
 4
 5
 6
 7 8 1.0 9 1.0 10 1.0
 8
 9
 10

