%chk=Ori-cut-ts.chk
%nprocshared=16
%mem=16GB
# MP2 IOp(3/125=0333312000) geom=connectivity

tmpdir/Subs_0_0.gjf

0 1
 C                  1.29895800   -0.14302000   -0.42258200
 C                  1.61805900   -1.31333700   -0.18471200
 N                 -0.68290700   -0.40283100   -1.55893400
 N                 -0.70572100   -1.64323000   -1.36061400
 N                 -0.04695300   -2.52104300   -0.96491900
 C                 -1.95948000    0.33457100   -1.60509700
 H                 -1.65016500    1.37790700   -1.68916000
 H                 -2.49825800    0.07289000   -2.52529500
 C                 -2.85566400    0.13658400   -0.39806900
 C                 -2.46230400    0.60515300    0.86390500
 C                 -4.08173600   -0.52446900   -0.52546500
 C                 -3.28548300    0.41331800    1.97238700
 H                 -1.50802500    1.11487700    0.96491100
 C                 -4.90811100   -0.71458200    0.58459700
 H                 -4.39373700   -0.89314400   -1.50055600
 C                 -4.51062300   -0.24607300    1.83658700
 H                 -2.97220600    0.78096800    2.94635300
 H                 -5.85845600   -1.22944700    0.46957200
 H                 -5.15048700   -0.39318400    2.70282100
 C                  2.51909900   -2.33393300    0.37608900
 H                  3.57030743   -1.95977370    0.42803144
 H                  2.48265700   -3.25991000   -0.20925300
 H                  2.16981400   -2.59938700    1.38437300
 C                  1.60982100    1.29196200   -0.47913000
 H                  2.39239389    1.52525526    0.28752318
 H                  2.00488500    1.53347300   -1.48141000
 H                  0.64105304    1.93476709   -0.30255788

 1 2 3.0 24 1.0
 2 20 1.0
 3 4 1.0 6 1.0
 4 5 3.0
 5
 6 7 1.0 8 1.0 9 1.0
 7
 8
 9 10 1.5 11 1.5
 10 12 1.5 13 1.0
 11 14 1.5 15 1.0
 12 16 1.5 17 1.0
 13
 14 16 1.5 18 1.0
 15
 16 19 1.0
 17
 18
 19
 20 21 1.0 22 1.0 23 1.0
 21
 22
 23
 24 25 1.0 26 1.0 27 1.0
 25
 26
 27
