%chk=ene-one-connect.chk
%nprocshared=8
%mem=8GB
#m062x/6-31g(d) geom=connectivity   scf=tight

Title Card

0 1
 C                  5.73518200    5.98827400    4.99993500
 C                  4.26485100    5.98829900    4.99985000
 H                  3.65116200    6.88196100    4.99973000
 H                  6.34891100    6.88190900    4.99987400
 C                 -0.05187200   -1.19827300    0.00008400
 C                 -1.47461900   -0.61822800   -0.00003600
 C                 -1.26210900    0.87726700   -0.00006800
 C                  0.02627300    1.22963400   -0.00003000
 H                  0.16275500   -1.81088900   -0.87961300
 H                 -2.05496600   -0.92464400    0.87728400
 H                 -2.05484100   -0.92469800   -0.87741900
 H                 -2.09760100    1.57109800   -0.00009900
 H                  0.43426800    2.23297000   -0.00001000
 H                  0.16268100   -1.81060400    0.88000200
 C                  0.88287200    0.01662200   -0.00004500
 O                  2.09055500   -0.02192100    0.00005300
 C                  6.17730700    4.71924100    5.00006000
 H                  7.20929100    4.39039000    5.00012300
 C                  3.82268400    4.71928500    5.00000100
 H                  2.79069100    4.39046600    5.00001100
 C                  4.99997900    3.78540300    5.00012800
 H                  4.99998600    3.12602600    4.12113300
 H                  4.99993800    3.12623600    5.87928200

 1 2 1.0 4 1.0 17 2.0
 2 3 1.0 19 2.0
 3
 4
 5 6 1.0 9 1.0 14 1.0 15 1.0
 6 7 1.0 10 1.0 11 1.0
 7 8 2.0 12 1.0
 8 13 1.0 15 1.0
 9
 10
 11
 12
 13
 14
 15 16 2.0
 16
 17 18 1.0 21 1.0
 18
 19 20 1.0 21 1.0
 20
 21 22 1.0 23 1.0
 22
 23

