%nprocshared=4 
%mem=4GB 
# scrf=(cpcm,solvent=water)  def2tzvp olyp

tmpdir/M1_conf_0_3.gjf 

0 1
P                   2.80292800   -0.10276700   -1.22200300 
O                   3.85518200    1.04519600   -1.01814200 
O                   2.09583600    0.07103200   -2.54137000 
H                   4.13167900    1.18681100   -0.09803700 
H                   2.02489897   -0.26704536   -0.17213744 
H                   3.58876455   -1.27042034   -1.29539854 


