%nprocshared=4 
%mem=4GB 
# scrf=(cpcm,solvent=water)  def2tzvp olyp

tmpdir/M1_conf_0_6.gjf 

0 1
O                   3.72046400   -1.46610900   -1.30769900 
H                   3.21488882   -0.71488847   -1.26047930 
H                   3.60031870   -2.11612920   -1.89979220 


