%nprocshared=4 
%mem=4GB 
# scrf=(cpcm,solvent=water)  def2tzvp olyp

tmpdir/M1_ref_5.gjf 

0 1
O                  -0.23239200   -1.16140900    1.88329300 
H                  -0.19008680   -0.64368341    1.08607603 
H                   0.13548037   -0.95922488    2.63658259 


