%nprocshared=4 
%mem=4GB 
# scrf=(cpcm,solvent=water)  def2tzvp olyp

tmpdir/M1_ref_6.gjf 

0 1
O                   1.57266800   -1.93444800    3.47378700 
H                   0.94592704   -1.30630857    3.35069213 
H                   2.45742512   -1.81029463    3.46924279 


