%nprocshared=4 
%mem=4GB 
# scrf=(cpcm,solvent=water)  def2tzvp olyp

tmpdir/M2_conf_0_33.gjf 

0 1
O                   0.00000000    0.00000000    0.00000000 
P                   1.62140000    0.00000000    0.00000000 
O                   2.12245000    0.00000000    1.48030000 
H                  -0.53272000    0.71869000    0.04648000 
O                   2.15603000    1.19555000   -0.72576000 
H                   1.95709000   -1.20133000   -0.48659000 
H                   1.87753000   -0.77336000    2.01557000 


