%nprocshared=4 
%mem=4GB 
# scrf=(cpcm,solvent=water)  def2tzvp olyp

tmpdir/M2_conf_0_16.gjf 

0 1
P                   0.00000000    0.00000000    0.00000000 
O                   1.64560000    0.00000000    0.00000000 
H                  -0.34059000    0.00000000   -1.29641000 
H                  -0.36116000   -1.15512000    0.56464000 
O                  -0.51290000    1.17228000    0.78063000 
H                   2.17689000    0.66286000    0.27660000 


