%nprocshared=4 
%mem=4GB 
# scrf=(cpcm,solvent=water)  def2tzvp olyp

tmpdir/M2_conf_0_34.gjf 

0 1
O                   0.00000000    0.00000000    0.00000000 
P                   1.62140000    0.00000000    0.00000000 
O                   2.02417000    0.00000000    1.51053000 
H                  -0.53272000   -0.22673000   -0.68357000 
O                   2.15603000   -1.12136000   -0.83584000 
H                   2.04412000    1.17710000   -0.47678000 
H                   1.79061000   -0.79958000    2.01182000 


