%nprocshared=4 
%mem=4GB 
# scrf=(cpcm,solvent=water)  def2tzvp olyp

tmpdir/M2_conf_0_59.gjf 

0 1
H                   0.00000000    0.00000000    0.00000000 
C                   1.11900000    0.00000000    0.00000000 
H                   1.39731000    0.00000000    1.08394000 
H                   1.39463000    1.02525000   -0.35362000 
H                   1.58560000   -0.84005000   -0.59854000 


