%nprocshared=4 
%mem=4GB 
# scrf=(cpcm,solvent=water)  def2tzvp olyp

tmpdir/M2_conf_0_20.gjf 

0 1
O                   0.00000000    0.00000000    0.00000000 
P                   1.56500000    0.00000000    0.00000000 
O                   2.16298000    0.00000000    1.44008000 
H                  -0.55699000    0.56355000   -0.52681000 
H                   1.91880000   -1.23872000   -0.52836000 
O                   2.18968000    1.09866000   -0.80587000 
H                   1.71708000   -0.56868000    2.09028000 


