%nprocshared=4 
%mem=4GB 
# scrf=(cpcm,solvent=water)  def2tzvp olyp

tmpdir/M2_conf_0_22.gjf 

0 1
O                   0.00000000    0.00000000    0.00000000 
P                   1.62580000    0.00000000    0.00000000 
O                   1.99801000    0.00000000    1.51422000 
H                  -0.53129000   -0.53960000   -0.47405000 
H                   1.96639000    1.16471000   -0.56932000 
O                   2.13870000   -1.21614000   -0.71037000 
H                   1.83574000    0.82835000    1.99639000 


