%nprocshared=4 
%mem=4GB 
# scrf=(cpcm,solvent=water)  def2tzvp olyp

tmpdir/M2_conf_0_35.gjf 

0 1
O                   0.00000000    0.00000000    0.00000000 
P                   1.49730000    0.00000000    0.00000000 
O                   2.02283000    0.00000000    1.47179000 
H                   1.99315000   -1.12190000   -0.65113000 
H                   2.10098000    1.03204000   -0.60259000 
H                   2.98639000    0.06191000    1.58272000 


