%nprocshared=4 
%mem=4GB 
# scrf=(cpcm,solvent=water)  def2tzvp olyp

tmpdir/M2_conf_0_11.gjf 

0 1
O                   0.00000000    0.00000000    0.00000000 
C                   1.45280000    0.00000000    0.00000000 
H                  -0.45369000    0.00000000   -0.74737000 
H                   1.83119000   -0.95056000   -0.38231000 
H                   1.74668000    0.12457000    1.04159000 
H                   1.83156000    0.82842000   -0.59990000 


