%nprocshared=4 
%mem=4GB 
# scrf=(cpcm,solvent=water)  def2tzvp olyp

tmpdir/M2_conf_0_38.gjf 

0 1
O                   0.00000000    0.00000000    0.00000000 
H                   0.97180000    0.00000000    0.00000000 
H                  -0.37964000    0.00000000   -0.77289000 


