%nprocshared=4 
%mem=4GB 
# scrf=(cpcm,solvent=water)  def2tzvp olyp

tmpdir/M2_conf_0_56.gjf 

-1 1
H                   0.00000000    0.00000000    0.00000000 
C                   1.11900000    0.00000000    0.00000000 
O                   1.68179000    0.00000000    1.25871000 
H                   1.39463000    0.88249000   -0.63040000 
H                   1.39409000   -0.88367000   -0.62915000 


