%nprocshared=4 
%mem=4GB 
# scrf=(cpcm,solvent=water)  def2tzvp olyp

tmpdir/M2_conf_0_6.gjf 

0 1
O                   0.00000000    0.00000000    0.00000000 
P                   1.48200000    0.00000000    0.00000000 
O                   2.37991000    0.00000000    1.22954000 
H                   2.07711000    0.93675000   -0.78436000 
H                   1.91985000   -1.22467000   -0.70422000 
H                   2.66755000   -0.69770000    1.72359000 


