%nprocshared=4 
%mem=4GB 
# scrf=(cpcm,solvent=water)  def2tzvp olyp

tmpdir/M2_conf_0_58.gjf 

-1 1
H                   0.00000000    0.00000000    0.00000000 
C                   1.11900000    0.00000000    0.00000000 
O                   1.67695000    0.00000000    1.26087000 
H                   1.39463000   -0.88282000   -0.62994000 
H                   1.39371000    0.88353000   -0.62952000 


