%nprocshared=4 
%mem=4GB 
# scrf=(cpcm,solvent=water)  def2tzvp olyp

tmpdir/M2_conf_0_21.gjf 

0 1
O                   0.00000000    0.00000000    0.00000000 
P                   1.56500000    0.00000000    0.00000000 
O                   2.21713000    0.00000000    1.34960000 
H                  -0.55699000    0.09147000    0.76599000 
H                   1.91880000    1.15868000   -0.68634000 
H                   2.01936000   -1.01263000   -0.74276000 


