%nprocshared=4 
%mem=4GB 
# scrf=(cpcm,solvent=water)  def2tzvp olyp

tmpdir/M2_conf_0_4.gjf 

0 1
P                   0.00000000    0.00000000    0.00000000 
O                   1.89140000    0.00000000    0.00000000 
O                  -0.43873000    0.00000000   -1.41557000 
H                  -0.22617000    1.14696000    0.69298000 
H                  -0.33420000   -0.96993000    0.80496000 
H                   2.39623000   -0.69916000   -0.00671000 


