%nprocshared=4 
%mem=4GB 
# scrf=(cpcm,solvent=water)  def2tzvp olyp

tmpdir/M2_conf_0_0.gjf 

1 1
Mg                  0.00000000    0.00000000    0.00000000 
O                   1.93820000    0.00000000    0.00000000 
H                   2.46705000    0.00000000    0.65121000 


