%nprocshared=4 
%mem=4GB 
# scrf=(cpcm,solvent=water)  def2tzvp olyp

tmpdir/M2_conf_0_14.gjf 

0 1
O                   0.00000000    0.00000000    0.00000000 
P                   1.53770000    0.00000000    0.00000000 
H                  -0.55699000    0.00000000   -0.77144000 
H                   1.89150000   -1.23189000    0.54410000 
H                   1.99206000    0.91741000    0.85760000 
O                   2.16238000    0.16156000   -1.35291000 


