%nprocshared=4 
%mem=4GB 
# scrf=(cpcm,solvent=water)  def2tzvp olyp

tmpdir/M2_conf_0_12.gjf 

0 1
P                   0.00000000    0.00000000    0.00000000 
O                   1.58670000    0.00000000    0.00000000 
C                   2.33270000    0.00000000    1.24944000 
O                  -0.64897000   -0.63288000    1.17244000 
H                  -0.35242000   -0.31922000   -1.21421000 
H                  -0.24614000    1.45522000    0.09589000 
H                   2.19842000    0.95056000    1.77031000 
H                   3.37766000   -0.12457000    0.96780000 
H                   2.01179000   -0.82842000    1.88218000 


