%nprocshared=4 
%mem=4GB 
# scrf=(cpcm,solvent=water)  def2tzvp olyp

tmpdir/M2_conf_0_9.gjf 

0 1
O                   0.00000000    0.00000000    0.00000000 
P                   1.58670000    0.00000000    0.00000000 
O                   1.66624000    0.00000000    1.72497000 
H                  -0.51861000    0.85246000    0.05617000 
O                   2.23567000    1.21152000   -0.55442000 
H                   1.93912000   -1.19059000   -0.39837000 
H                   2.29068000   -0.35592000    2.20154000 


