%nprocshared=4 
%mem=4GB 
# scrf=(cpcm,solvent=water)  def2tzvp olyp

tmpdir/M2_conf_0_39.gjf 

0 1
P                   0.00000000    0.00000000    0.00000000 
O                   1.56280000    0.00000000    0.00000000 
H                   1.98565000    0.00000000    0.87509000 
H                  -0.43857000    1.16811000    0.60964000 
O                  -0.51971000   -0.09966000   -1.40067000 
H                  -0.35578000   -0.97445000    0.84648000 


