%nprocshared=4 
%mem=4GB 
# scrf=(cpcm,solvent=water)  def2tzvp olyp

tmpdir/M2_conf_0_42.gjf 

0 1
C                   0.00000000    0.00000000    0.00000000 
H                   1.09220000    0.00000000    0.00000000 
H                  -0.41393000    0.00000000   -1.12081000 
H                  -0.37099000   -0.91991000    0.45046000 
H                  -0.37983000    0.86574000    0.54392000 


