%nprocshared=4 
%mem=4GB 
# scrf=(cpcm,solvent=water)  def2tzvp olyp

tmpdir/M2_ref_40.gjf 

0 1
O                   3.77337200   -3.13785000    3.24534800 
H                   3.58676800   -3.54678400    2.38331400 
H                   3.44551040   -2.35060528    3.36667687 


