%nprocshared=4 
%mem=4GB 
# scrf=(cpcm,solvent=water)  def2tzvp olyp

tmpdir/M2_ref_14.gjf 

0 1
O                  -0.23239200   -1.16140900    1.88329300 
P                   0.43523600   -0.79447800    3.25039000 
H                  -0.19008680   -0.64368341    1.08607603 
H                   1.40940556   -1.77082127    3.44172149 
H                  -0.44217711   -0.96024489    4.24350883 
O                   1.05873400    0.56785000    3.29536900 


