%nprocshared=4 
%mem=4GB 
# scrf=(cpcm,solvent=water)  def2tzvp olyp

tmpdir/M2_ref_1.gjf 

0 1
O                  -1.30130600    0.71789800    0.46229200 
P                  -0.15561500   -0.22182200    0.43647500 
H                  -0.22438135   -1.21880177   -0.48445333 
H                   1.07088855    0.21825747    0.38838369 
H                  -0.22137174   -1.02654444    1.67562253 


