%nprocshared=4 
%mem=4GB 
# scrf=(cpcm,solvent=water)  def2tzvp olyp

tmpdir/M2_ref_11.gjf 

0 1
O                  -0.23590600   -1.38588700   -0.63879300 
C                  -1.51638900   -1.90378800   -1.09671400 
H                  -0.19166453   -0.74447089   -0.04630528 
H                  -2.01937300   -2.43833500   -0.28795700 
H                  -1.28190200   -2.59275500   -1.90732800 
H                  -2.14462000   -1.09086000   -1.46302100 


