%nprocshared=4 
%mem=4GB 
# scrf=(cpcm,solvent=water)  def2tzvp olyp

tmpdir/M2_ref_15.gjf 

0 1
P                  -0.15561500   -0.22182200    0.43647500 
O                  -0.23239200   -1.16140900    1.88329300 
P                   0.43523600   -0.79447800    3.25039000 
O                  -1.30130600    0.71789800    0.46229200 
H                  -0.22438135   -1.21880177   -0.48445333 
H                   1.07088855    0.21825747    0.38838369 
H                   1.40940556   -1.77082127    3.44172149 
H                  -0.44217711   -0.96024489    4.24350883 
O                   1.05873400    0.56785000    3.29536900 


