%nprocshared=4 
%mem=4GB 
# scrf=(cpcm,solvent=water)  def2tzvp olyp

tmpdir/M2_ref_0.gjf 

1 1
Mg                  2.43572000    0.84584000    1.83521500 
O                   1.27644000    0.29201100    0.38032400 
H                   0.48735765    0.00888182    0.41126399 


