%nprocshared=4 
%mem=4GB 
# scrf=(cpcm,solvent=water)  def2tzvp olyp

tmpdir/M2_ref_38.gjf 

0 1
O                   3.62540400   -1.29027500    4.90323600 
H                   3.47038700   -1.94226900    5.60712900 
H                   3.37907484   -1.52106997    4.11104538 


