%nprocshared=4 
%mem=4GB 
# scrf=(cpcm,solvent=water)  def2tzvp olyp

tmpdir/M2_ref_12.gjf 

0 1
P                  -0.15561500   -0.22182200    0.43647500 
O                  -0.23590600   -1.38588700   -0.63879300 
C                  -1.51638900   -1.90378800   -1.09671400 
O                  -1.30130600    0.71789800    0.46229200 
H                   1.07088855    0.21825747    0.38838369 
H                  -0.22137174   -1.02654444    1.67562253 
H                  -2.01937300   -2.43833500   -0.28795700 
H                  -1.28190200   -2.59275500   -1.90732800 
H                  -2.14462000   -1.09086000   -1.46302100 


