%nprocshared=4 
%mem=4GB 
# scrf=(cpcm,solvent=water)  def2tzvp olyp

tmpdir/M2_ref_2.gjf 

0 1
P                  -0.15561500   -0.22182200    0.43647500 
O                  -0.23590600   -1.38588700   -0.63879300 
O                  -1.30130600    0.71789800    0.46229200 
H                   1.07088855    0.21825747    0.38838369 
H                  -0.22137174   -1.02654444    1.67562253 
H                  -1.11535325   -1.74158607   -0.95329726 


