%nprocshared=4 
%mem=4GB 
# scrf=(cpcm,solvent=water)  def2tzvp olyp

tmpdir/M2_ref_27.gjf 

0 1
O                  -0.58922400   -0.98802600    4.40994700 
H                  -1.15749200   -1.77473900    4.35418100 
H                  -0.02473220   -0.88137834    3.77101486 


