%chk=bnme-ts-sp.chk
%nprocshared=24
%mem=24GB
#p b3lyp/6-31g(d) geom=connectivity em=gd3

title

0 1
 N                  0.85120300    1.31045100   -0.40186900
 N                  1.12773600    0.66049200   -1.45322200
 N                  1.92869200   -0.12200600   -1.79668500
 C                 -0.52889300    1.72104300   -0.15981000
 H                 -0.48329500    2.26746100    0.79018000
 H                 -0.84651100    2.45231500   -0.91566000
 C                 -1.54685200    0.59510700   -0.05816200
 C                 -1.16654600   -0.70891600    0.27998400
 C                 -2.90229900    0.87383000   -0.27145500
 C                 -2.12898000   -1.71277400    0.40603000
 H                 -0.11677300   -0.94077100    0.43264900
 C                 -3.86411700   -0.12803400   -0.14166600
 H                 -3.20706100    1.88231000   -0.54471300
 C                 -3.47908300   -1.42685700    0.19835000
 H                 -1.81980100   -2.72230700    0.66427300
 H                 -4.91204900    0.10347400   -0.31382700
 H                 -4.22583700   -2.21045700    0.29457300
 C                  2.24722000    0.18267400    0.92957500
 C                  2.84393700   -0.54050800    0.11829200
 C                  3.82324400   -1.54399100   -0.33851900
 H                  4.51316500   -1.11051400   -1.07094900
 H                  4.40974800   -1.93509400    0.50137100
 H                  3.31952700   -2.38213200   -0.83224400
 C                  1.83944400    0.80972500    2.19578400
 H                  0.78372100    0.60988200    2.41610900
 H                  2.43759300    0.41876600    3.02841700
 H                  1.97170600    1.89672000    2.16184000

 1 2 2.0 4 1.0
 2 3 2.0
 3
 4 5 1.0 6 1.0 7 1.0
 5
 6
 7 8 1.5 9 1.5
 8 10 1.5 11 1.0
 9 12 1.5 13 1.0
 10 14 1.5 15 1.0
 11
 12 14 1.5 16 1.0
 13
 14 17 1.0
 15
 16
 17
 18 19 3.0 24 1.0
 19 20 1.0
 20 21 1.0 22 1.0 23 1.0
 21
 22
 23
 24 25 1.0 26 1.0 27 1.0
 25
 26
 27

