%chk=2Cl_pyridine.chk
%nprocshared=16
%mem=16GB
# b3lyp/genecp geom=connectivity 5D

title card

0 1
 C                 -1.17919400   -0.02756400    0.00000000
 Cl                -2.70946400    0.83867600    0.00000000
 H                 -0.01639700    1.80588900    0.00000000
 C                 -0.07620500   -2.00965300    0.00000000
 H                 -0.14698200   -3.09506300    0.00000000
 C                  1.19203600    0.00548000    0.00000000
 C                  0.00000000    0.72365600    0.00000000
 Cl                 2.71633200    0.85994100    0.00000000
 C                  1.17148200   -1.38996500    0.00000000
 H                  2.08818800   -1.96769500    0.00000000
 N                 -1.24147000   -1.34733400    0.00000000
 Pd                 0.00019100   -0.00750200  -19.99995500
 P                  2.30249200    0.05322200  -19.96071900
 H                  3.06868400   -0.53073400  -21.00215900
 H                  2.99937000    1.28882000  -19.94525300
 H                  3.03295200   -0.53693900  -18.89731600
 P                 -2.30237900   -0.05591800  -20.03927100
 H                 -3.05779200    1.14488500  -20.04289400
 H                 -3.00390300   -0.66996000  -21.10864400
 H                 -3.03960900   -0.68607000  -19.00383900

 1 2 1.0 7 1.0 11 2.0
 2
 3 7 1.0
 4 5 1.0 9 2.0 11 1.0
 5
 6 7 2.0 8 1.0 9 1.0
 7
 8
 9 10 1.0
 10
 11
 12 13 1.0 17 1.0
 13 14 1.0 15 1.0 16 1.0
 14
 15
 16
 17 18 1.0 19 1.0 20 1.0
 18
 19
 20

-Pd 0
lanl2dz
****
-P -H -Cl -C -N 0
6-31G(d)
****

-Pd 0
lanl2


