%chk=2Cl_pyridine.chk
%nprocshared=16
%mem=16GB
# b3lyp/genecp geom=connectivity 5d scf=tight

title card

0 1
 C                  0.64964600   -0.76863000   -0.06782600
 Cl                -0.46232400   -1.89025600   -1.40929800
 H                  1.78017000    0.16207000   -1.69118400
 C                  1.72461900   -1.14413100    1.91593000
 H                  1.65426900   -1.54302400    2.92497300
 C                  2.91310200   -0.09292300    0.13634600
 C                  1.79535400   -0.19237500   -0.66880800
 Cl                 4.37427600    0.64545000   -0.49705100
 C                  2.90192000   -0.56910400    1.46063600
 H                  3.78308300   -0.50848300    2.08750500
 N                  0.62418400   -1.27106100    1.15055500
 Pd                -1.27985800    0.13417200   -0.06069400
 P                 -3.65285100   -0.15937300    0.47208400
 H                 -4.02062400   -0.60299600    1.76739400
 H                 -4.61588900    0.87960800    0.40073500
 H                 -4.41955300   -1.11564700   -0.23959600
 P                 -0.66028900    2.41652800   -0.10259600
 H                 -1.61582500    3.45173200   -0.26980000
 H                 -0.01991100    2.99517200    1.02329900
 H                  0.26453200    2.91441200   -1.05735000

 1 2 1.0 7 1.0 11 2.0
 2
 3 7 1.0
 4 5 1.0 9 2.0 11 1.0
 5
 6 7 2.0 8 1.0 9 1.0
 7
 8
 9 10 1.0
 10
 11
 12 13 1.0 17 1.0
 13 14 1.0 15 1.0 16 1.0
 14
 15
 16
 17 18 1.0 19 1.0 20 1.0
 18
 19
 20

-Pd 0
lanl2dz
****
-P -H -Cl -C -N 0
6-31G(d)
****

-Pd 0
lanl2
