%nprocshared=4 
%mem=4GB 
# b3lyp/6-31+g(d,p) scrf=(iefpcm,solvent=acetonitrile) 

tmpdir/M1_conf_0_8.gjf 

0 1
C                  -1.62518100   -1.47558900    1.72243200 
H                  -2.43059800   -2.11816500    1.35268100 
H                  -0.93323300   -2.10476700    2.29095200 
H                  -2.04881800   -0.73153000    2.39886900 
H                  -1.10638711   -1.00183964    0.88697852 


