%nprocshared=4 
%mem=4GB 
# b3lyp/6-31+g(d,p) scrf=(iefpcm,solvent=acetonitrile) 

tmpdir/M1_conf_0_4.gjf 

0 1
N                   0.02991200    1.33866700   -0.00256100 
H                  -0.64772025    1.30524495   -0.83207873 
H                   0.67206724    2.10911717    0.05428524 
H                  -0.00622615    0.63479641    0.65728521 


