%nprocshared=4 
%mem=4GB 
# b3lyp/6-31+g(d,p) scrf=(iefpcm,solvent=acetonitrile) 

tmpdir/M1_conf_0_1.gjf 

0 1
S                  -1.10398800    1.28274100   -1.39061500 
O                  -1.61625500    2.68670500   -1.56201000 
H                  -2.07670662    0.53709206   -0.67765742 
H                  -0.17718350    1.32845268   -0.25607518 


