%nprocshared=2 
%mem=2GB 
# b3lyp/6-31+g(d,p) scrf=(iefpcm,solvent=acetonitrile) 

tmpdir/M2_conf_0_34.gjf 

0 1
C                   0.00000000    0.00000000    0.00000000 
C                   1.40400000    0.00000000    0.00000000 
C                   2.18032000    0.00000000    1.29457000 
H                  -0.52402000   -0.02473000   -0.86389000 
H                  -0.53556000    0.02376000    0.94515000 
H                   1.88820000   -0.02453000   -0.89480000 
H                   2.46148000   -1.02227000    1.57623000 
H                   3.10454000    0.57838000    1.20434000 
H                   1.58897000    0.41682000    2.11438000 


