%nprocshared=2 
%mem=2GB 
# b3lyp/6-31+g(d,p) scrf=(iefpcm,solvent=acetonitrile) 

tmpdir/M2_conf_0_91.gjf 

0 2
C                   0.00000000    0.00000000    0.00000000 
C                   1.49670000    0.00000000    0.00000000 
H                   1.87704000    0.00000000    1.03151000 
H                  -0.60690000   -0.78520000   -0.39166000 
H                  -0.52538000    0.87852000    0.33126000 
H                   1.91856000   -0.85260000   -0.53401000 
H                   1.87061000    0.91735000   -0.46984000 


