%nprocshared=2 
%mem=2GB 
# b3lyp/6-31+g(d,p) scrf=(iefpcm,solvent=acetonitrile) 

tmpdir/M2_conf_0_13.gjf 

0 1
C                   0.00000000    0.00000000    0.00000000 
H                   1.08550000    0.00000000    0.00000000 
O                  -0.61223000    0.00000000   -1.06600000 
H                  -0.52221000    0.00272000    0.86533000 


