%nprocshared=2 
%mem=2GB 
# b3lyp/6-31+g(d,p) scrf=(iefpcm,solvent=acetonitrile) 

tmpdir/M2_conf_0_136.gjf 

0 1
C                   0.00000000    0.00000000    0.00000000 
H                   1.08530000    0.00000000    0.00000000 
O                  -0.60880000    0.00000000   -1.07038000 
H                  -0.50997000    0.00428000    0.87480000 


