%nprocshared=2 
%mem=2GB 
# b3lyp/6-31+g(d,p) scrf=(iefpcm,solvent=acetonitrile) 

tmpdir/M2_conf_0_131.gjf 

0 1
C                   0.00000000    0.00000000    0.00000000 
H                   1.08530000    0.00000000    0.00000000 
H                  -0.49979000    0.00000000   -0.87871000 
O                  -0.62135000   -0.00446000    1.06545000 


