%nprocshared=2 
%mem=2GB 
# b3lyp/6-31+g(d,p) scrf=(iefpcm,solvent=acetonitrile) 

tmpdir/M2_conf_0_26.gjf 

0 1
C                   0.00000000    0.00000000    0.00000000 
C                   1.40400000    0.00000000    0.00000000 
H                   1.93427000    0.00000000    0.94842000 
H                  -0.48420000    0.00203000   -0.89513000 
H                  -0.56180000    0.02355000    0.93692000 
H                   1.92802000    0.00287000   -0.86424000 


