%nprocshared=2 
%mem=2GB 
# b3lyp/6-31+g(d,p) scrf=(iefpcm,solvent=acetonitrile) 

tmpdir/M2_conf_0_51.gjf 

0 1
N                   0.00000000    0.00000000    0.00000000 
C                   1.37890000    0.00000000    0.00000000 
H                  -0.52567000    0.00000000   -0.92496000 
H                  -0.50538000   -0.16965000    0.85444000 
H                   1.90556000    0.43688000   -0.81856000 
O                   2.00231000   -0.46355000    0.96276000 


