%nprocshared=2 
%mem=2GB 
# b3lyp/6-31+g(d,p) scrf=(iefpcm,solvent=acetonitrile) 

tmpdir/M2_conf_0_130.gjf 

0 1
C                   0.00000000    0.00000000    0.00000000 
C                   1.39800000    0.00000000    0.00000000 
H                  -0.50728000    0.00000000   -0.87440000 
H                  -0.54675000    0.00393000    0.93751000 
H                   1.91071000    0.00274000   -0.87320000 
H                   1.93751000    0.00066000    0.94205000 


