%nprocshared=2 
%mem=2GB 
# b3lyp/6-31+g(d,p) scrf=(iefpcm,solvent=acetonitrile) 

tmpdir/M2_conf_0_125.gjf 

0 1
C                   0.00000000    0.00000000    0.00000000 
C                   1.39600000    0.00000000    0.00000000 
H                  -0.48588000    0.00000000   -0.88784000 
H                  -0.55640000   -0.01316000    0.93068000 
H                   1.90444000    0.00122000   -0.87570000 
H                   1.93257000   -0.00576000    0.94336000 


