%nprocshared=2 
%mem=2GB 
# b3lyp/6-31+g(d,p) scrf=(iefpcm,solvent=acetonitrile) 

tmpdir/M2_conf_0_139.gjf 

0 1
C                   0.00000000    0.00000000    0.00000000 
C                   1.39880000    0.00000000    0.00000000 
H                   1.94587000    0.00000000    0.93733000 
O                  -0.62451000    0.00761000   -1.06358000 
H                  -0.53919000   -0.00312000    0.94223000 
O                   2.01710000    0.00520000   -1.06490000 


