%nprocshared=2 
%mem=2GB 
# b3lyp/6-31+g(d,p) scrf=(iefpcm,solvent=acetonitrile) 

tmpdir/M2_ref_140.gjf 

0 1
C                  -6.87285700   -1.94425900   -1.57826200 
H                  -7.59263300   -2.57453600   -2.09132600 
O                  -6.20065830   -1.13355755   -2.22031913 
H                  -6.76006253   -2.02345792   -0.57507762 


