%nprocshared=2 
%mem=2GB 
# b3lyp/6-31+g(d,p) scrf=(iefpcm,solvent=acetonitrile) 

tmpdir/M2_ref_128.gjf 

0 1
C                  -5.04005100   -0.33250400   -0.26783000 
C                  -5.79450200   -1.24517600    0.47550200 
H                  -5.67248400   -1.31171300    1.55098500 
H                  -4.28780824    0.31437424    0.26146476 
O                  -5.16623758   -0.22453954   -1.48930809 
O                  -6.60782538   -1.95795460   -0.11335754 


