%nprocshared=2 
%mem=2GB 
# b3lyp/6-31+g(d,p) scrf=(iefpcm,solvent=acetonitrile) 

tmpdir/M2_ref_50.gjf 

0 1
N                   1.26990200    0.87148300    0.31974100 
C                   2.17227200    1.54379700   -0.57616500 
H                   1.66363747    0.33342543    1.14877347 
H                   0.32285297    0.76966432    0.08069087 
H                   2.51766479    2.45986605   -0.31576873 
O                   2.53247826    1.01731708   -1.63347384 


