%nprocshared=2 
%mem=2GB 
# b3lyp/6-31+g(d,p) scrf=(iefpcm,solvent=acetonitrile) 

tmpdir/M2_ref_76.gjf 

0 1
C                   3.46299500    1.62538300   -2.61764600 
H                   3.77392200    1.16650300   -3.55133600 
H                   2.82442041    1.13403669   -2.00799211 
O                   3.88939210    2.74000041   -2.30286324 


