%nprocshared=2 
%mem=2GB 
# b3lyp/6-31+g(d,p) scrf=(iefpcm,solvent=acetonitrile) 

tmpdir/M2_ref_111.gjf 

0 1
C                  -2.28046500   -0.33321900    0.56154300 
S                  -3.83660700    0.70237700    0.57894000 
C                  -5.04005100   -0.33250400   -0.26783000 
H                  -1.40002635    0.18694159    0.89603769 
H                  -2.18579300   -0.68057300   -0.46778200 
H                  -2.53698500   -1.16598300    1.22537400 
O                  -3.61697700    1.92366600   -0.22714800 
O                  -4.26548800    0.85345800    1.99072900 
O                  -5.16623758   -0.22453954   -1.48930809 
H                  -5.58618752   -0.99317448    0.27025763 


