%nprocshared=2 
%mem=2GB 
# b3lyp/6-31+g(d,p) scrf=(iefpcm,solvent=acetonitrile) 

tmpdir/M2_ref_89.gjf 

0 1
C                  -0.96887600    0.81581300    2.45386400 
H                  -0.13728400    1.49834900    2.63445900 
H                  -1.03787826    0.50420541    1.41853401 
H                  -0.86042700   -0.05096600    3.12134500 
H                  -1.89562500    1.31779200    2.75588200 


