%nprocshared=2 
%mem=2GB 
# b3lyp/6-31+g(d,p) scrf=(iefpcm,solvent=acetonitrile) 

tmpdir/M2_ref_27.gjf 

0 1
C                   3.68324500   -3.03143100   -0.39849200 
C                   5.05367700   -2.72182500   -0.34813000 
C                   2.73511900   -2.20513100    0.20377800 
H                   3.35480000   -3.93225100   -0.90956600 
C                   5.45064400   -1.55467200    0.32379300 
H                   5.79204506   -3.38892142   -0.79952070 


