%nprocshared=2 
%mem=2GB 
# b3lyp/6-31+g(d,p) scrf=(iefpcm,solvent=acetonitrile) 

tmpdir/M2_ref_52.gjf 

0 1
S                   1.92875000   -0.02886300    1.70698300 
N                   1.26990200    0.87148300    0.31974100 
C                   2.17227200    1.54379700   -0.57616500 
H                   2.86769582   -0.80093098    1.05697874 
O                   2.71058100    0.95044200    2.55118400 
H                   0.32285297    0.76966432    0.08069087 
H                   2.51766479    2.45986605   -0.31576873 
O                   2.53247826    1.01731708   -1.63347384 


