%nprocshared=2 
%mem=2GB 
# b3lyp/6-31+g(d,p) scrf=(iefpcm,solvent=acetonitrile) 

tmpdir/M2_ref_3.gjf 

0 2
C                  -0.08266000    0.72606700   -0.02166700 
C                  -1.06419800    0.38534800    1.02362500 
C                  -0.96887600    0.81581300    2.45386400 
H                   0.98046861    0.84036558    0.24668344 
O                  -0.45727500    0.92555100   -1.18366300 
H                  -1.94463665   -0.13481259    0.68913031 
H                  -0.86042700   -0.05096600    3.12134500 
H                  -0.13728400    1.49834900    2.63445900 
H                  -1.89562500    1.31779200    2.75588200 


