%nprocshared=4 
%mem=4GB 
# b3lyp/6-31+g(d,p) scrf=(iefpcm,solvent=acetonitrile) 

tmpdir/M3_conf_0_31.gjf 

0 1
C                   0.00000000    0.00000000    0.00000000 
H                   1.09470000    0.00000000    0.00000000 
H                  -0.38967000    0.00000000   -1.01090000 
H                  -0.34651000    0.85258000    0.58574000 
H                  -0.30386000   -0.91733000    0.51794000 


