%nprocshared=4 
%mem=4GB 
# b3lyp/6-31+g(d,p) scrf=(iefpcm,solvent=acetonitrile) 

tmpdir/M3_conf_0_53.gjf 

0 1
C                   0.00000000    0.00000000    0.00000000 
S                   1.86930000    0.00000000    0.00000000 
O                   2.37488000    0.00000000    1.39437000 
H                  -0.44172000   -0.94467000    0.26465000 
H                  -0.28077000    0.31739000   -1.00480000 
H                  -0.24157000    0.78000000    0.73017000 
O                   2.35544000   -1.07060000   -0.89834000 
H                   2.18959000    1.21152000   -0.55365000 


