%nprocshared=4 
%mem=4GB 
# b3lyp/6-31+g(d,p) scrf=(iefpcm,solvent=acetonitrile) 

tmpdir/M3_conf_0_13.gjf 

0 1
C                   0.00000000    0.00000000    0.00000000 
C                   1.50950000    0.00000000    0.00000000 
H                   1.89474000    0.00000000    1.02329000 
C                  -0.72185000   -0.49306000    1.09865000 
C                  -0.71629000    0.46412000   -1.11717000 
C                  -2.11762000   -0.52723000    1.09134000 
H                  -0.18655000   -0.85843000    1.97080000 
C                  -2.11021000    0.43686000   -1.14169000 
H                  -0.17720000    0.84557000   -1.97993000 
C                  -2.80011000   -0.04769000   -0.02594000 
H                  -2.67311000   -0.92155000    1.93570000 
H                  -2.64623000    0.79228000   -2.01750000 
H                   1.89565000   -0.89323000   -0.50640000 
H                   1.90743000    0.87112000   -0.52881000 
H                  -3.92811000   -0.11839000   -0.07768000 


