%nprocshared=4 
%mem=4GB 
# b3lyp/6-31+g(d,p) scrf=(iefpcm,solvent=acetonitrile) 

tmpdir/M3_conf_0_26.gjf 

0 1
C                   0.00000000    0.00000000    0.00000000 
N                   1.43840000    0.00000000    0.00000000 
C                   2.20185000    0.00000000    1.17650000 
C                  -0.66671000    1.16435000   -0.39797000 
C                  -0.72414000   -1.13927000    0.37369000 
C                  -2.06457000    1.18772000   -0.42410000 
H                  -0.08980000    2.03876000   -0.67819000 
C                  -2.11941000   -1.10559000    0.35529000 
H                  -0.19686000   -2.03514000    0.68103000 
C                  -2.79127000    0.05531000   -0.04617000 
H                  -2.58133000    2.09108000   -0.73372000 
H                  -2.68143000   -1.98579000    0.65249000 
H                  -3.87687000    0.07591000   -0.06158000 
H                   1.95922000   -0.18019000   -0.91004000 
H                   3.23341000    0.26911000    1.13494000 
O                   1.67331000   -0.26718000    2.26263000 


