%nprocshared=4 
%mem=4GB 
# b3lyp/6-31+g(d,p) scrf=(iefpcm,solvent=acetonitrile) 

tmpdir/M3_conf_0_36.gjf 

0 2
C                   0.00000000    0.00000000    0.00000000 
C                   1.49670000    0.00000000    0.00000000 
H                   1.89479000    0.00000000    1.02158000 
H                  -0.60690000    0.70654000   -0.52033000 
H                  -0.52538000   -0.69532000    0.63092000 
H                   1.89212000   -0.91304000   -0.46763000 
H                   1.91856000    0.86396000   -0.51543000 


