%nprocshared=4 
%mem=4GB 
# b3lyp/6-31+g(d,p) scrf=(iefpcm,solvent=acetonitrile) 

tmpdir/M3_frag_conf_0_1.gjf 

0 1
C                   0.94702900    2.43901300    0.07862600 
C                   2.22179500    2.31810200   -0.48643700 
C                   0.55761700    3.62692100    0.70707700 
C                   3.11320500    3.39065500   -0.41362200 
H                   2.50836900    1.39052000   -0.97135200 
C                   1.45423900    4.69600600    0.77696400 
H                  -0.43433500    3.70600600    1.13800200 
C                   2.73050300    4.57941500    0.21705800 
H                   4.10370700    3.29723700   -0.84809700 
H                   1.15481100    5.61755200    1.26651700 
H                   3.42504000    5.41227400    0.27173100 
H                   0.22616495    1.57412894    0.01481212 


