%nprocshared=4 
%mem=4GB 
# b3lyp/6-31+g(d,p) scrf=(iefpcm,solvent=acetonitrile) 

tmpdir/M3_ref_13.gjf 

0 1
C                   5.05367700   -2.72182500   -0.34813000 
C                   6.07368300   -3.64337400   -0.97169600 
H                   7.00073900   -3.11280200   -1.20514200 
C                   5.45064400   -1.55467200    0.32379300 
C                   3.68324500   -3.03143100   -0.39849200 
C                   4.51482000   -0.71564300    0.93180900 
H                   6.50545100   -1.29900600    0.37565500 
C                   2.73511900   -2.20513100    0.20377800 
H                   3.35480000   -3.93225100   -0.90956600 
C                   3.16165000   -1.04264100    0.85348300 
H                   4.82477800    0.17845000    1.46244500 
H                   1.68100100   -2.46534500    0.16134200 
H                   6.32490000   -4.46189600   -0.28583600 
H                   5.69151000   -4.09567100   -1.89162700 
H                   2.39099503   -0.40895372    1.38698451 


