%nprocshared=4 
%mem=4GB 
# b3lyp/6-31+g(d,p) scrf=(iefpcm,solvent=acetonitrile) 

tmpdir/M3_ref_45.gjf 

0 2
C                  -1.06419800    0.38534800    1.02362500 
C                  -2.28046500   -0.33321900    0.56154300 
S                  -3.83660700    0.70237700    0.57894000 
H                  -0.35367638    0.63198971    0.26695276 
H                  -0.99519574    0.69695559    2.05895499 
H                  -2.18579300   -0.68057300   -0.46778200 
H                  -2.53698500   -1.16598300    1.22537400 
O                  -3.61697700    1.92366600   -0.22714800 
O                  -4.26548800    0.85345800    1.99072900 
H                  -4.75311986   -0.08576250   -0.06593886 


