%chk=bnme-ts.chk
%nprocshared=24
%mem=24GB
#MP2 IOp(3/125=0333312000)   freq=hpmodes geom=check guess=read 

title

0 1

B 1 3 A
B 2 5 A
