%nprocshared=4 
%mem=4GB 
# b3lyp/6-31g(d) 

tmpdir/M2_conf_0_16.gjf 

0 1
N                   0.00000000    0.00000000    0.00000000 
C                   1.45850000    0.00000000    0.00000000 
H                  -0.34685000    0.00000000   -1.11154000 
H                  -0.31017000    0.91599000    0.32833000 
H                   1.75927000    0.27346000    1.02127000 
H                   1.86357000    0.76381000   -0.68460000 
H                   1.85882000   -0.99676000   -0.26354000 


