%nprocshared=4 
%mem=4GB 
# b3lyp/6-31g(d) 

tmpdir/M2_conf_0_8.gjf 

0 1
C                   0.00000000    0.00000000    0.00000000 
C                   1.46340000    0.00000000    0.00000000 
H                   1.80821000    0.00000000    1.04382000 
N                  -1.12325000   -0.01213000   -0.02134000 
H                   1.82593000    0.93652000   -0.44790000 
H                   1.89961000   -0.87026000   -0.54655000 


