%nprocshared=4 
%mem=4GB 
# b3lyp/6-31g(d) 

tmpdir/M2_conf_0_11.gjf 

0 1
H                   0.00000000    0.00000000    0.00000000 
C                   1.09930000    0.00000000    0.00000000 
H                   1.40608000    0.00000000    1.05594000 
H                   1.44927000    0.88589000   -0.46372000 
H                   1.47123000   -0.92829000   -0.49628000 


