%nprocshared=4 
%mem=4GB 
# b3lyp/6-31g(d) 

tmpdir/M2_conf_0_15.gjf 

0 1
N                   0.00000000    0.00000000    0.00000000 
H                   1.02030000    0.00000000    0.00000000 
H                  -0.25202000    0.00000000   -1.13680000 
H                  -0.31184000   -0.90046000    0.38241000 


