%nprocshared=4 
%mem=4GB 
# b3lyp/6-31g(d) 

tmpdir/M2_conf_0_37.gjf 

0 1
C                   0.00000000    0.00000000    0.00000000 
C                   1.52780000    0.00000000    0.00000000 
H                   1.91475000    0.00000000    1.02457000 
H                  -0.41722000    0.92232000    0.55134000 
H                  -0.38099000    0.06690000   -1.02889000 
H                  -0.37863000   -0.93895000    0.43724000 
H                   1.94764000   -0.88567000   -0.53448000 
H                   1.89062000    0.92231000   -0.46812000 


