%nprocshared=4 
%mem=4GB 
# b3lyp/6-31g(d) 

tmpdir/M2_conf_0_21.gjf 

0 1
N                   0.00000000    0.00000000    0.00000000 
O                   1.44920000    0.00000000    0.00000000 
H                   1.57278000    0.00000000    0.96200000 
H                  -0.22105000   -0.83040000   -0.55193000 
H                  -0.30586000    0.82094000   -0.53557000 


