%nprocshared=4 
%mem=4GB 
# b3lyp/6-31g(d) 

tmpdir/M2_ref_0.gjf 

0 1
C                  -2.58197800   -0.04579800    0.06552100 
C                  -3.58663900   -0.68445300   -0.13711000 
H                  -1.69335871    0.50471875    0.23742945 
H                  -4.47463000   -1.24716500   -0.31445300 


