%nprocshared=4 
%mem=4GB 
# b3lyp/6-31g(d) 

tmpdir/M2_ref_6.gjf 

0 1
C                  -1.35441000    0.71470400    0.30300100 
H                  -1.44664300    1.70669300   -0.16248800 
H                  -2.24302929    0.16418725    0.13109255 
H                  -1.24209000    0.89543900    1.38154600 
H                  -0.44180547    0.20209064   -0.08515970 


