%nprocshared=4 
%mem=4GB 
# b3lyp/6-31g(d) 

tmpdir/M2_ref_39.gjf 

0 1
C                  -2.58197800   -0.04579800    0.06552100 
C                  -1.35441000    0.71470400    0.30300100 
C                  -0.09370800    0.00656300   -0.23321700 
C                   1.17580500    0.81372600    0.03333300 
N                  -3.50723160   -0.63397435   -0.12109425 
H                  -1.24209000    0.89543900    1.38154600 
H                  -1.44664300    1.70669300   -0.16248800 
H                  -0.19480800   -0.16538000   -1.31100700 
H                   0.00093000   -0.97452200    0.24420500 
H                   2.10761790    0.27342833   -0.37710465 
H                   1.13150300    1.77818300   -0.49221400 
H                   1.27141300    1.02375800    1.11167600 


