%chk=II.chk
%nprocshared=16
%mem=16GB
# b3lyp/6-31+g(d,p) scrf=(iefpcm,solvent=acetonitrile) geom=connectivity

title card

0 2
 C                 -1.06419800    0.38534800    1.02362500
 C                  3.16165000   -1.04264100    0.85348300
 C                  4.51482000   -0.71564300    0.93180900
 C                  2.73511900   -2.20513100    0.20377800
 C                  5.45064400   -1.55467200    0.32379300
 H                  4.82477800    0.17845000    1.46244500
 C                  3.68324500   -3.03143100   -0.39849200
 H                  1.68100100   -2.46534500    0.16134200
 C                  5.05367700   -2.72182500   -0.34813000
 H                  6.50545100   -1.29900600    0.37565500
 H                  3.35480000   -3.93225100   -0.90956600
 C                  6.07368300   -3.64337400   -0.97169600
 H                  6.32490000   -4.46189600   -0.28583600
 H                  5.69151000   -4.09567100   -1.89162700
 H                  7.00073900   -3.11280200   -1.20514200
 S                  1.92875000   -0.02886300    1.70698300
 O                  2.71058100    0.95044200    2.55118400
 N                  1.26990200    0.87148300    0.31974100
 C                  2.17227200    1.54379700   -0.57616500
 C                  2.64940900    2.80928500   -0.21644500
 C                  2.58084700    0.94662100   -1.77545000
 C                  3.54115600    3.47905400   -1.05996000
 H                  2.31760700    3.25886600    0.71296700
 C                  3.46299500    1.62538300   -2.61764600
 H                  2.20391900   -0.03358200   -2.04410100
 C                  3.94664900    2.88967200   -2.26059400
 H                  3.91170300    4.46046300   -0.77997100
 H                  3.77392200    1.16650300   -3.55133600
 H                  4.63497300    3.41273800   -2.91775100
 C                 -0.08266000    0.72606700   -0.02166700
 O                 -0.45727500    0.92555100   -1.18366300
 C                 -0.96887600    0.81581300    2.45386400
 H                 -0.86042700   -0.05096600    3.12134500
 H                 -0.13728400    1.49834900    2.63445900
 H                 -1.89562500    1.31779200    2.75588200
 C                 -2.28046500   -0.33321900    0.56154300
 H                 -2.18579300   -0.68057300   -0.46778200
 H                 -2.53698500   -1.16598300    1.22537400
 S                 -3.83660700    0.70237700    0.57894000
 O                 -3.61697700    1.92366600   -0.22714800
 O                 -4.26548800    0.85345800    1.99072900
 C                 -5.04005100   -0.33250400   -0.26783000
 C                 -5.18318200   -0.21004200   -1.65332900
 C                 -5.79450200   -1.24517600    0.47550200
 C                 -6.11039500   -1.02469600   -2.30653500
 H                 -4.59274600    0.51387800   -2.20412700
 C                 -6.71703900   -2.05366700   -0.19243000
 H                 -5.67248400   -1.31171300    1.55098500
 C                 -6.87285700   -1.94425900   -1.57826200
 H                 -6.23844700   -0.93745900   -3.38068100
 H                 -7.31484100   -2.76336900    0.37042000
 H                 -7.59263300   -2.57453600   -2.09132600

 1 30 1.0 32 1.0 36 1.0
 2 3 2.0 4 1.0 16 1.0
 3 5 1.0 6 1.0
 4 7 2.0 8 1.0
 5 9 2.0 10 1.0
 6
 7 9 1.0 11 1.0
 8
 9 12 1.0
 10
 11
 12 13 1.0 14 1.0 15 1.0
 13
 14
 15
 16 17 2.0 18 1.0
 17
 18 19 1.0 30 1.0
 19 20 1.0 21 2.0
 20 22 2.0 23 1.0
 21 24 1.0 25 1.0
 22 26 1.0 27 1.0
 23
 24 26 2.0 28 1.0
 25
 26 29 1.0
 27
 28
 29
 30 31 2.0
 31
 32 33 1.0 34 1.0 35 1.0
 33
 34
 35
 36 37 1.0 38 1.0 39 1.0
 37
 38
 39 40 2.0 41 2.0 42 1.0
 40
 41
 42 43 2.0 44 1.0
 43 45 1.0 46 1.0
 44 47 2.0 48 1.0
 45 49 2.0 50 1.0
 46
 47 49 1.0 51 1.0
 48
 49 52 1.0
 50
 51
 52
