%nprocshared=8 
%mem=8GB 
# M062X/def2TZVPP 

tmpdir/M1_conf_0_3.gjf 

0 1
O                  -1.77847601    1.87257490   -1.26446079 
H                  -1.95583847    1.66453688   -0.39373990 
H                  -1.87865239    2.79791178   -1.52558939 


