%nprocshared=8 
%mem=8GB 
# M062X/def2TZVPP 

tmpdir/M1_conf_0_0.gjf 

0 1
H                  -0.84847968    2.07366807    0.84708803 
H                  -0.19986417    1.24864943    0.60922607 


