%nprocshared=8 
%mem=8GB 
# M062X/def2TZVPP 

tmpdir/M1_conf_0_2.gjf 

0 1
O                  -3.16808901    2.16808487    0.64760016 
H                  -2.44476686    1.76851059    0.27900919 
H                  -3.35928078    2.01087223    1.57682767 


