%nprocshared=8 
%mem=8GB 
# M062X/def2TZVPP 

tmpdir/M1_conf_0_1.gjf 

0 1
C                  -3.44646592    1.93918187    2.00056366 
H                  -2.56314553    2.12011352    2.62372711 
H                  -4.23655722    2.62057623    2.31274297 
H                  -3.78896703    0.91399820    2.17654657 
H                  -3.21789342    2.12713183    0.88965886 


