%nprocshared=8 
%mem=8GB 
# M062X/def2TZVPP 

tmpdir/M1_ref_2.gjf 

0 1
O                  -1.13872374    0.70486068    0.39094960 
H                  -0.51572218    0.23127937   -0.02064284 
H                  -1.52367808    0.40592018    1.22995830 


