%nprocshared=8 
%mem=8GB 
# M062X/def2TZVPP 

tmpdir/M1_ref_5.gjf 

0 1
B                  -0.17753149   -0.02579991   -0.24407203 
H                   0.20988990   -1.05159398    0.14796895 
H                  -0.97643508    0.58149522    0.28373191 
H                   0.23574877    0.36661949   -1.21842394 


