%nprocshared=8 
%mem=8GB 
# M062X/def2TZVPP 

tmpdir/M1_ref_3.gjf 

0 1
O                   0.31970220    0.44633527   -1.41635304 
H                  -0.00258230    0.14031849   -0.65653324 
H                   0.00045340    1.29114588   -1.77938213 


