%nprocshared=6 
%mem=6GB 
# M062X/def2TZVPP 

tmpdir/M2_conf_0_18.gjf 

0 1
B                   0.00000000    0.00000000    0.00000000 
C                   1.57860000    0.00000000    0.00000000 
H                   2.02231000    0.00000000    1.00129000 
H                  -0.62303000   -0.66651000    0.67329000 
H                  -0.53619000    0.66993000   -0.73341000 
H                   2.01142000    0.90279000   -0.55866000 
H                   1.89522000   -0.97174000   -0.41509000 


