%nprocshared=6 
%mem=6GB 
# M062X/def2TZVPP 

tmpdir/M2_conf_0_9.gjf 

0 1
C                   0.00000000    0.00000000    0.00000000 
B                   1.57860000    0.00000000    0.00000000 
O                   2.33611000    0.00000000    1.13456000 
H                  -0.43282000   -0.24838000   -1.03220000 
H                  -0.31662000    0.98255000    0.38882000 
H                  -0.36432000   -0.72661000    0.73401000 
H                   2.11479000    0.03986000   -0.99252000 
H                   1.92441000   -0.03203000    2.01260000 


