%nprocshared=6 
%mem=6GB 
# M062X/def2TZVPP 

tmpdir/M2_conf_0_12.gjf 

0 1
C                   0.00000000    0.00000000    0.00000000 
H                   1.08800000    0.00000000    0.00000000 
H                  -0.46083000    0.00000000   -1.04981000 
H                  -0.31160000   -0.86020000    0.58437000 
H                  -0.28401000    0.91869000    0.52422000 


