%nprocshared=6 
%mem=6GB 
# M062X/def2TZVPP 

tmpdir/M2_conf_0_28.gjf 

0 1
O                   0.00000000    0.00000000    0.00000000 
C                   1.41280000    0.00000000    0.00000000 
H                   1.75964000    0.00000000    1.03060000 
H                  -0.45712000   -0.13845000   -0.74410000 
H                   1.80207000    0.89003000   -0.49702000 
H                   1.81092000   -0.88507000   -0.49973000 


