%nprocshared=6 
%mem=6GB 
# M062X/def2TZVPP 

tmpdir/M2_conf_0_4.gjf 

0 1
H                   0.00000000    0.00000000    0.00000000 
N                   1.01090000    0.00000000    0.00000000 
C                   1.52342000    0.00000000    1.36570000 
H                   1.32811000   -0.80174000   -0.52544000 
H                   0.89985000    0.58176000    2.03745000 
H                   1.60994000   -1.00735000    1.80681000 
H                   2.54199000    0.40236000    1.37412000 


