%nprocshared=6 
%mem=6GB 
# M062X/def2TZVPP 

tmpdir/M2_conf_0_5.gjf 

0 1
H                   0.00000000    0.00000000    0.00000000 
N                   1.00970000    0.00000000    0.00000000 
C                   1.66125000    0.00000000    1.30510000 
H                   1.32728000    0.81095000   -0.51325000 
H                   2.66831000    0.40294000    1.26041000 
H                   1.12093000    0.58238000    2.07042000 
H                   1.69481000   -1.02207000    1.69716000 


