%nprocshared=6 
%mem=6GB 
# M062X/def2TZVPP 

tmpdir/M2_conf_0_38.gjf 

0 1
O                   0.00000000    0.00000000    0.00000000 
C                   1.41720000    0.00000000    0.00000000 
H                   1.75977000    0.00000000    1.03161000 
H                  -0.44329000    0.00491000   -0.76041000 
H                   1.80576000   -0.88418000   -0.50576000 
H                   1.80480000    0.88528000   -0.50413000 


