%nprocshared=6 
%mem=6GB 
# M062X/def2TZVPP 

tmpdir/M2_conf_0_0.gjf 

0 1
N                   0.00000000    0.00000000    0.00000000 
H                   1.01460000    0.00000000    0.00000000 
H                  -0.31721000    0.00000000   -0.95858000 
H                  -0.35967000    0.79947000    0.52396000 


