%nprocshared=6 
%mem=6GB 
# M062X/def2TZVPP 

tmpdir/M2_conf_0_16.gjf 

0 1
N                   0.00000000    0.00000000    0.00000000 
C                   1.45870000    0.00000000    0.00000000 
H                   1.79204000    0.00000000    1.04324000 
H                  -0.35601000   -0.36877000   -0.87131000 
H                  -0.38004000    0.92616000    0.13148000 
H                   1.86853000   -0.85529000   -0.52824000 
H                   1.90209000    0.89893000   -0.46060000 


