%nprocshared=6 
%mem=6GB 
# M062X/def2TZVPP 

tmpdir/M2_conf_0_40.gjf 

0 1
H                   0.00000000    0.00000000    0.00000000 
C                   1.09020000    0.00000000    0.00000000 
H                   1.44750000    0.00000000    1.02660000 
H                   1.50496000    0.95479000   -0.52014000 
H                   1.43624000   -0.89979000   -0.50866000 


