%nprocshared=6 
%mem=6GB 
# M062X/def2TZVPP 

tmpdir/M2_conf_0_26.gjf 

0 1
C                   0.00000000    0.00000000    0.00000000 
H                   1.09510000    0.00000000    0.00000000 
H                  -0.42307000    0.00000000   -1.08010000 
H                  -0.35220000    0.87038000    0.55599000 
H                  -0.35205000   -0.90132000    0.49612000 


