%nprocshared=6 
%mem=6GB 
# M062X/def2TZVPP 

tmpdir/M2_conf_0_42.gjf 

0 1
H                   0.00000000    0.00000000    0.00000000 
H                   1.07610000    0.00000000    0.00000000 


