%nprocshared=6 
%mem=6GB 
# M062X/def2TZVPP 

tmpdir/M2_conf_0_19.gjf 

0 1
H                   0.00000000    0.00000000    0.00000000 
C                   1.10310000    0.00000000    0.00000000 
H                   1.47355000    0.00000000    1.03065000 
H                   1.56393000   -0.91180000   -0.52030000 
H                   1.41470000    0.93388000   -0.45750000 


