%nprocshared=6 
%mem=6GB 
# M062X/def2TZVPP 

tmpdir/M2_conf_0_21.gjf 

0 1
B                   0.00000000    0.00000000    0.00000000 
O                   1.36420000    0.00000000    0.00000000 
C                   2.04288000    0.00000000    1.23911000 
H                  -0.63985000    0.03752000    0.97224000 
H                  -0.53463000    0.00156000   -0.99416000 
H                   1.94411000   -0.96593000    1.73705000 
H                   3.09552000    0.18932000    1.04281000 
H                   1.66135000    0.77884000    1.90201000 


