%nprocshared=6 
%mem=6GB 
# M062X/def2TZVPP 

tmpdir/M2_conf_0_35.gjf 

0 1
C                   0.00000000    0.00000000    0.00000000 
H                   1.08930000    0.00000000    0.00000000 
H                  -0.35148000    0.00000000   -1.10935000 
H                  -0.36481000    0.88419000    0.52312000 
H                  -0.36367000   -0.88527000    0.52167000 


