%nprocshared=6 
%mem=6GB 
# M062X/def2TZVPP 

tmpdir/M2_conf_0_3.gjf 

0 1
H                   0.00000000    0.00000000    0.00000000 
N                   1.01090000    0.00000000    0.00000000 
H                   1.36516000    0.00000000    0.94551000 
H                   1.37057000    0.79947000   -0.52396000 


