%nprocshared=6 
%mem=6GB 
# M062X/def2TZVPP 

tmpdir/M2_conf_0_17.gjf 

0 1
B                   0.00000000    0.00000000    0.00000000 
C                   1.57860000    0.00000000    0.00000000 
H                   2.02868000    0.00000000    1.00710000 
H                  -0.62303000    0.88093000    0.34861000 
H                  -0.53619000   -0.93756000   -0.32814000 
H                   2.01142000   -0.86839000   -0.61076000 
H                   1.94292000    0.94980000   -0.40571000 


