%nprocshared=6 
%mem=6GB 
# M062X/def2TZVPP 

tmpdir/M2_ref_11.gjf 

0 1
O                  -1.13872374    0.70486068    0.39094960 
B                  -0.17753149   -0.02579991   -0.24407203 
O                   0.31970220    0.44633527   -1.41635304 
H                  -1.52367808    0.40592018    1.22995830 
H                   0.20988990   -1.05159398    0.14796895 
H                   0.00045340    1.29114588   -1.77938213 


