%nprocshared=6 
%mem=6GB 
# M062X/def2TZVPP 

tmpdir/M2_ref_9.gjf 

0 1
C                   0.34765889   -1.41637150    0.28738069 
B                  -0.17753149   -0.02579991   -0.24407203 
O                  -1.13872374    0.70486068    0.39094960 
H                   1.31184212   -1.74474857   -0.23898021 
H                  -0.48403329   -2.13238119    0.17629062 
H                   0.52393733   -1.35095828    1.36634202 
H                   0.23574877    0.36661949   -1.21842394 
H                  -1.52367808    0.40592018    1.22995830 


