%nprocshared=6 
%mem=6GB 
# M062X/def2TZVPP 

tmpdir/M2_ref_10.gjf 

0 1
C                   0.34765889   -1.41637150    0.28738069 
B                  -0.17753149   -0.02579991   -0.24407203 
O                   0.31970220    0.44633527   -1.41635304 
H                   1.31184212   -1.74474857   -0.23898021 
H                  -0.48403329   -2.13238119    0.17629062 
H                   0.52393733   -1.35095828    1.36634202 
H                  -0.97643508    0.58149522    0.28373191 
H                   0.00045340    1.29114588   -1.77938213 


