%nprocshared=6 
%mem=6GB 
# M062X/def2TZVPP 

tmpdir/M2_ref_27.gjf 

0 1
O                  -1.13872374    0.70486068    0.39094960 
C                  -1.69922068    0.26960066    1.61255371 
H                  -0.97903174    0.36428605    2.42682036 
H                  -0.51572218    0.23127937   -0.02064284 
H                  -2.55936524    0.89903077    1.82787369 
H                  -2.02797854   -0.76959552    1.55195751 


