%nprocshared=6 
%mem=6GB 
# M062X/def2TZVPP 

tmpdir/M2_ref_42.gjf 

0 1
H                   1.16737885   -0.67704677   27.56472326 
H                   0.71432315   -0.63735423   26.98192174 


