%nprocshared=6 
%mem=6GB 
# M062X/def2TZVPP 

tmpdir/M2_ref_1.gjf 

0 1
N                   1.57433794   -1.83414819   -0.38228030 
H                   1.70522894   -2.83467573   -0.34611959 
H                   1.56486511   -1.54988166   -1.35238812 
H                   0.71543076   -1.54162555    0.08660896 


