%chk=ts-c4ls.chk
%nprocshared=16
%mem=16GB
#m06/6-311+G** scrf(smd,read,solvent=generic) geom=connectivity

title card

0 1
C 2.3190594292 5.667420958 0.5839327435
C 2.617090939 4.3774370328 0.9229944651
H 0.381615081 6.5374890393 0.3479555946
H -0.5748514807 4.2102062435 0.8995250745
C 0.4743895616 4.4843608761 0.8584658616
N 0.9422512463 5.7207494272 0.5454749375
N 1.4635841286 3.6508791194 1.0876675092
H 3.5918227068 3.9241221837 1.0563297645
C 1.0169067449 3.2599475055 -2.2775533183
N 0.1000808584 2.2139595531 -1.8773082726
H 1.5141932196 2.9833305835 -3.2143433578
H 1.787010198 3.4279273805 -1.5100762068
C 5.9602203053 -2.0355909147 0.4666893884
C 4.6497037454 -1.9123234063 0.8171591202
H 6.8334420083 -1.7843495331 -1.4680432523
H 4.49464451 -1.24910389 -2.3223814691
C 4.7533096616 -1.4955482164 -1.3000062898
N 6.0098065786 -1.768067406 -0.883810148
N 3.907830259 -1.5724803073 -0.2923162711
H 4.1791457831 -2.0515953208 1.7817401965
Ni 2.0045749057 -1.3384728577 -0.3467690666
C -0.1247223265 -3.4062107149 0.5081605965
C -4.0185518125 -0.9219480835 -1.1838446267
N -2.5470260903 -1.0250476724 -1.0583319718
C -1.7292995209 -0.014355032 -1.4436732184
C -4.7001385075 -1.1171420825 0.2009793375
O -0.7526527827 -4.3830875634 0.8565731273
O -5.5368717721 -2.2314857427 0.2352220855
S 1.6582996253 -3.2593822975 0.6013717698
C -0.402661818 -0.0170962894 -1.1198951144
C -5.4636466151 0.2115494716 0.3725113278
O -6.7881316753 0.0626986738 -0.1201636856
C 0.1591072067 -1.0285941076 -0.2250925594
C -4.6529628681 1.1511329595 -0.4834620537
O -4.3759053715 0.344494529 -1.6509601115
C -0.7223509235 -2.1794796341 -0.0595632724
C -2.0212345941 -2.136080764 -0.4246319085
C 0.5256708836 0.9888876536 -1.5391813483
S 2.18298768 0.5630620831 -1.4728417645
H -0.7183147682 2.4957605842 -1.3357503731
H -2.2029195656 0.7568202079 -2.0459160762
H -2.6958693434 -2.9808229 -0.2814300984
H -3.9297217692 -1.203603504 0.97819034
H -6.4377040174 -1.8833028987 0.1050886385
H -5.5360139748 0.5207971435 1.4192843706
H -6.7310018894 0.1057811922 -1.0881309986
H -5.2121216237 2.0300115801 -0.8213103639
H 0.2534126311 -0.4865558278 0.8450275149
C -0.0892077435 0.4000518469 2.0671671601
C -1.3467919534 1.0655414001 1.4606350911
C -0.2213146803 -0.7334313014 3.0158004098
H -0.9460082185 -1.4624908199 2.6373095492
H 0.7493049579 -1.2114193337 3.1896496499
H -0.6123252028 -0.3519712663 3.9702896357
O -2.4181165912 0.4806655558 1.6758920941
O -1.1057059162 2.10235827 0.7947515464
H -4.3627349089 -1.6811407885 -1.9003286461
O 0.9920157529 1.1238453046 2.1893725637
H 0.949130386 1.9668259795 1.639925324
H 6.842143287 -2.2873950395 1.0375668003
H 0.4508612927 4.1821933377 -2.4378925539
H 2.935743618 6.5296502495 0.3711507019
H -3.7249058667 1.4470075909 0.0322031079

 1 2 2.0 6 1.0 62 1.0
 2 7 1.0 8 1.0
 3 6 1.0
 4 5 1.0
 5 6 1.0 7 2.0
 6
 7
 8
 9 10 1.0 11 1.0 12 1.0 61 1.0
 10 38 1.0 40 1.0
 11
 12
 13 14 2.0 18 1.0 60 1.0
 14 19 1.0 20 1.0
 15 18 1.0
 16 17 1.0
 17 18 1.0 19 2.0
 18
 19 21 1.0
 20
 21 29 1.0 33 1.0 39 1.0
 22 27 2.0 29 1.0 36 1.0
 23 24 1.0 26 1.0 35 1.0 57 1.0
 24 25 2.0 37 1.0
 25 30 1.0 41 1.0
 26 28 1.0 31 1.0 43 1.0
 27
 28 44 1.0
 29
 30 33 2.0 38 1.0
 31 32 1.0 34 1.0 45 1.0
 32 46 1.0
 33 36 1.0
 34 35 1.0 47 1.0 63 1.0
 35
 36 37 2.0
 37 42 1.0
 38 39 2.0
 39
 40
 41
 42
 43
 44
 45
 46
 47
 48 49 1.0
 49 50 1.0 51 1.0 58 1.0
 50 55 1.0 56 2.0
 51 52 1.0 53 1.0 54 1.0
 52
 53
 54
 55
 56
 57
 58 59 1.0
 59
 60
 61
 62
 63

eps=4