%nprocshared=4 
%mem=4GB 
# b3lyp/6-31g(d) 

tmpdir/M1_conf_0_1.gjf 

0 1
C                   1.20346900    1.18509800    0.12796200 
H                   1.55051100    1.84111600   -0.67977800 
H                   1.55047900    1.64151600    1.06362300 
C                   1.81357100   -0.24321500   -0.02605900 
H                   2.26158700   -0.56202900    0.92297600 
H                   2.61462600   -0.26260400   -0.77106600 
H                   0.12704183    1.15363574    0.09884948 
H                   0.99931073   -0.95131305   -0.30476380 


