%nprocshared=4 
%mem=4GB 
# ub3lyp/6-31+g(d) 

tmpdir/M1_conf_0_1.gjf 

0 2
C                  -1.92492845    0.69096023    1.02990288 
H                  -2.82789693    1.20645666    1.33675372 
H                  -1.26418365    1.13870076    0.28211368 
H                  -1.75725980   -0.35872783    1.16043845 


