%nprocshared=4 
%mem=4GB 
# ub3lyp/6-31+g(d) 

tmpdir/M1_conf_0_3.gjf 

0 1
C                  -0.99488303   -1.32618459   -0.01886187 
H                  -0.95025381   -2.41738988   -0.03819589 
H                   0.00606512   -0.86935663   -0.02928198 
H                  -1.50046124   -0.91568976    0.87085982 
H                  -1.60141700   -0.88604367   -0.81859339 


