%nprocshared=4 
%mem=4GB 
# ub3lyp/6-31+g(d) 

tmpdir/M1_ref_5.gjf 

0 1
C                   2.76086323   -0.64577722   -0.05543502 
C                   1.56913860   -1.37271489   -0.06897614 
C                   0.35803021   -0.69509548   -0.06228099 
C                   0.33039499    0.70663737   -0.01689504 
C                   1.51456879    1.42595753    0.00431597 
C                   2.73397309    0.74492017   -0.01998226 
H                   3.71236256   -1.16918432   -0.07323601 
H                   1.58781592   -2.45944017   -0.09245997 
H                   1.49361496    2.51222136    0.04104510 
H                   3.66448683    1.30480451   -0.00921086 
H                  -0.64898759   -1.14630964   -0.03800929 
H                  -0.68507474    1.12345238    0.01035115 


