%nprocshared=2 
%mem=2GB 
# ub3lyp/6-31+g(d) 

tmpdir/M2_conf_0_9.gjf 

0 1
C                   0.00000000    0.00000000    0.00000000 
C                   1.39600000    0.00000000    0.00000000 
H                   1.94513000    0.00000000    0.93821000 
H                  -0.50786000   -0.00395000   -0.86978000 
H                  -0.53960000    0.00477000    0.94256000 
H                   1.88901000    0.00733000   -0.87528000 


