%nprocshared=2 
%mem=2GB 
# ub3lyp/6-31+g(d) 

tmpdir/M2_conf_0_41.gjf 

0 1
C                   0.00000000    0.00000000    0.00000000 
C                   1.50810000    0.00000000    0.00000000 
H                  -0.34003000    0.00000000   -1.04402000 
H                  -0.19334000    1.00226000    0.42791000 
H                  -0.42584000   -0.81534000    0.58869000 
O                   1.99677000    0.85874000   -0.64218000 
H                   2.06788000   -0.70343000    0.60804000 


