%nprocshared=2 
%mem=2GB 
# ub3lyp/6-31+g(d) 

tmpdir/M2_conf_0_40.gjf 

0 1
C                   0.00000000    0.00000000    0.00000000 
H                   1.09000000    0.00000000    0.00000000 
H                  -0.43008000    0.00000000   -1.01026000 
H                  -0.44222000   -0.84244000    0.56546000 
H                  -0.43122000    0.85330000    0.55583000 


