%nprocshared=2 
%mem=2GB 
# ub3lyp/6-31+g(d) 

tmpdir/M2_conf_0_2.gjf 

0 1
C                   0.00000000    0.00000000    0.00000000 
H                   1.08620000    0.00000000    0.00000000 
O                  -0.61144000    0.00000000   -1.06807000 
H                  -0.50253000    0.00046000    0.87288000 


