%nprocshared=2 
%mem=2GB 
# ub3lyp/6-31+g(d) 

tmpdir/M2_conf_0_58.gjf 

0 1
C                   0.00000000    0.00000000    0.00000000 
H                   1.08510000    0.00000000    0.00000000 
H                  -0.57041000    0.00000000   -0.94744000 
O                  -0.66440000   -0.07585000    0.97028000 


