%nprocshared=2 
%mem=2GB 
# ub3lyp/6-31+g(d) 

tmpdir/M2_conf_0_59.gjf 

0 1
C                   0.00000000    0.00000000    0.00000000 
C                   1.52780000    0.00000000    0.00000000 
C                   2.13361000    0.00000000    1.19154000 
H                  -0.34003000    0.83609000    0.62525000 
H                  -0.19334000   -0.94292000    0.54637000 
H                  -0.42584000    0.01685000   -1.00551000 
H                   2.08758000   -0.06567000   -0.92747000 
H                   1.44900000    0.01449000    2.05228000 
H                   3.20890000   -0.03507000    1.32815000 


