%nprocshared=2 
%mem=2GB 
# ub3lyp/6-31+g(d) 

tmpdir/M2_conf_0_11.gjf 

0 1
C                   0.00000000    0.00000000    0.00000000 
C                   1.40140000    0.00000000    0.00000000 
H                  -0.50761000    0.00000000   -0.86692000 
H                  -0.43022000   -0.05178000    1.01518000 
H                   1.90537000    0.01256000   -0.86722000 
H                   1.83887000   -0.02654000    1.00674000 


