%nprocshared=2 
%mem=2GB 
# ub3lyp/6-31+g(d) 

tmpdir/M2_conf_0_27.gjf 

0 1
C                   0.00000000    0.00000000    0.00000000 
C                   1.39140000    0.00000000    0.00000000 
C                   2.09407000    0.00000000    1.20731000 
O                  -0.62055000    0.00167000    1.06280000 
H                  -0.54190000   -0.00099000   -0.94125000 
H                   1.93325000   -0.00197000   -0.94116000 
H                   1.58815000    0.00701000    2.07345000 
H                   3.18113000   -0.00901000    1.20922000 


