%nprocshared=2 
%mem=2GB 
# ub3lyp/6-31+g(d) 

tmpdir/M2_conf_0_28.gjf 

0 1
C                   0.00000000    0.00000000    0.00000000 
C                   1.39140000    0.00000000    0.00000000 
H                   1.93424000    0.00000000    0.94060000 
O                  -0.62055000    0.00037000   -1.06280000 
H                  -0.54190000   -0.00099000    0.94125000 
O                   2.01273000    0.00223000   -1.06327000 


