%nprocshared=2 
%mem=2GB 
# ub3lyp/6-31+g(d) 

tmpdir/M2_conf_0_33.gjf 

0 2
C                   0.00000000    0.00000000    0.00000000 
C                   1.52480000    0.00000000    0.00000000 
C                   1.93798000    0.00000000    1.47191000 
H                  -0.59939000    0.71575000   -0.37101000 
O                  -0.48202000   -0.98090000    0.57872000 
H                   1.93787000    0.86466000   -0.52427000 
H                   1.86396000   -0.96603000   -0.40192000 
H                   1.70074000   -0.94365000    1.93570000 
H                   1.76030000    0.92719000    2.01755000 


