%nprocshared=2 
%mem=2GB 
# ub3lyp/6-31+g(d) 

tmpdir/M2_conf_0_12.gjf 

0 1
C                   0.00000000    0.00000000    0.00000000 
C                   1.52000000    0.00000000    0.00000000 
H                  -0.59939000    0.00000000   -0.80620000 
O                  -0.48202000    0.06238000    1.13718000 
H                   1.73098000    0.96453000    0.49996000 
H                   1.93307000   -0.06754000   -1.00893000 
H                   1.85916000   -0.80140000    0.67269000 


