%nprocshared=2 
%mem=2GB 
# ub3lyp/6-31+g(d) 

tmpdir/M2_ref_27.gjf 

0 1
C                   2.76086323   -0.64577722   -0.05543502 
C                   2.73397309    0.74492017   -0.01998226 
C                   1.51456879    1.42595753    0.00431597 
O                   1.71021973   -1.28665710   -0.06737309 
H                   3.71236256   -1.16918432   -0.07323601 
H                   3.66448683    1.30480451   -0.00921086 
H                   0.65736195    0.90525174   -0.01103838 
H                   1.49361496    2.51222136    0.04104510 


