%nprocshared=2 
%mem=2GB 
# ub3lyp/6-31+g(d) 

tmpdir/M2_ref_62.gjf 

0 1
C                  -1.85834667   -0.68255240   -1.13486030 
H                  -2.40082691   -1.28897047   -1.85186107 
H                  -1.26096028   -1.14284632   -0.33416345 
O                  -1.87094255    0.49574382   -1.12078459 


