%nprocshared=2 
%mem=2GB 
# ub3lyp/6-31+g(d) 

tmpdir/M2_ref_26.gjf 

0 1
C                   2.73397309    0.74492017   -0.01998226 
H                   3.66448683    1.30480451   -0.00921086 
H                   2.75343849   -0.26178620   -0.04564602 
O                   1.65892675    1.34533360    0.00143945 


