%nprocshared=2 
%mem=2GB 
# ub3lyp/6-31+g(d) 

tmpdir/M2_ref_22.gjf 

0 1
C                   1.51456879    1.42595753    0.00431597 
H                   1.49361496    2.51222136    0.04104510 
H                   0.65736195    0.90525174   -0.01103838 
O                   2.58961513    0.82554410   -0.01710574 


