%nprocshared=2 
%mem=2GB 
# ub3lyp/6-31+g(d) 

tmpdir/M2_ref_64.gjf 

0 1
C                  -1.03309740   -1.31841760   -0.02875126 
C                  -1.85834667   -0.68255240   -1.13486030 
H                  -2.40082691   -1.28897047   -1.85186107 
H                  -0.02607960   -0.86720344   -0.05302296 
H                  -1.41477893   -0.93071278    0.93497418 
H                  -0.99835638   -2.40914399   -0.07674181 
O                  -1.87094255    0.49574382   -1.12078459 


