%nprocshared=2 
%mem=2GB 
# ub3lyp/6-31+g(d) 

tmpdir/M2_ref_15.gjf 

0 1
C                   0.33039499    0.70663737   -0.01689504 
C                   0.35803021   -0.69509548   -0.06228099 
C                  -1.03309740   -1.31841760   -0.02875126 
H                   1.18760183    1.22734316   -0.00154069 
H                  -0.68507474    1.12345238    0.01035115 
H                   1.23473462   -1.18561468   -0.06712752 
H                  -1.41477893   -0.93071278    0.93497418 
H                  -0.99835638   -2.40914399   -0.07674181 
H                  -1.63048379   -0.85812368   -0.82944811 


