%nprocshared=2 
%mem=2GB 
# ub3lyp/6-31+g(d) 

tmpdir/M2_ref_46.gjf 

0 2
C                  -1.80408589    0.68398541    1.22253756 
C                  -1.07240839    1.28243937    0.02074375 
C                  -1.87263393    0.65396624   -1.11889449 
H                  -1.62765964   -0.37782127    1.28047255 
H                  -2.80967507    1.06898249    1.39913883 
H                  -0.05693866    0.86562436   -0.00650244 
H                  -1.08734547    2.37420030    0.00010213 
O                  -1.86003805   -0.52432998   -1.13297020 
H                  -2.45157130    1.26792245   -1.80134370 


