%nprocshared=2 
%mem=2GB 
# ub3lyp/6-31+g(d) 

tmpdir/M2_ref_3.gjf 

0 1
C                   1.56913860   -1.37271489   -0.06897614 
C                   2.76086323   -0.64577722   -0.05543502 
C                   2.73397309    0.74492017   -0.01998226 
H                   0.69243419   -0.88219569   -0.06412961 
H                   1.58781592   -2.45944017   -0.09245997 
H                   3.71236256   -1.16918432   -0.07323601 
O                   1.65892675    1.34533360    0.00143945 
H                   3.66448683    1.30480451   -0.00921086 


