%nprocshared=2 
%mem=2GB 
# ub3lyp/6-31+g(d) 

tmpdir/M2_ref_5.gjf 

0 1
C                   2.73397309    0.74492017   -0.01998226 
C                   2.76086323   -0.64577722   -0.05543502 
H                   3.71236256   -1.16918432   -0.07323601 
O                   1.65892675    1.34533360    0.00143945 
H                   3.66448683    1.30480451   -0.00921086 
O                   1.71021973   -1.28665710   -0.06737309 


