%nprocshared=2 
%mem=2GB 
# ub3lyp/6-31+g(d) 

tmpdir/M2_ref_30.gjf 

0 2
C                  -1.03309740   -1.31841760   -0.02875126 
C                  -1.56036485   -0.78282937    1.30257086 
H                  -0.02607960   -0.86720344   -0.05302296 
H                  -0.99835638   -2.40914399   -0.07674181 
H                  -1.63048379   -0.85812368   -0.82944811 
H                  -1.73679110    0.27897731    1.24463587 
H                  -1.10668637   -1.20451272    2.20001314 


