%nprocshared=2 
%mem=2GB 
# ub3lyp/6-31+g(d) 

tmpdir/M2_ref_13.gjf 

0 1
C                   1.56913860   -1.37271489   -0.06897614 
C                   0.35803021   -0.69509548   -0.06228099 
C                   0.33039499    0.70663737   -0.01689504 
O                   2.61978210   -0.73183501   -0.05703807 
H                   1.58781592   -2.45944017   -0.09245997 
H                  -0.64898759   -1.14630964   -0.03800929 
H                   1.18760183    1.22734316   -0.00154069 
H                  -0.68507474    1.12345238    0.01035115 


