%nprocshared=2 
%mem=2GB 
# ub3lyp/6-31+g(d) 

tmpdir/M2_ref_42.gjf 

0 2
C                   0.33039499    0.70663737   -0.01689504 
C                  -1.07240839    1.28243937    0.02074375 
C                  -1.80408589    0.68398541    1.22253756 
O                   0.35475864   -0.52915274   -0.05690802 
H                   1.18760183    1.22734316   -0.00154069 
H                  -1.08734547    2.37420030    0.00010213 
H                  -1.65168046    0.82749647   -0.80422442 
H                  -1.62765964   -0.37782127    1.28047255 
H                  -2.80967507    1.06898249    1.39913883 


