%nprocshared=2 
%mem=2GB 
# ub3lyp/6-31+g(d) 

tmpdir/M2_ref_47.gjf 

0 1
H                  -1.08734547    2.37420030    0.00010213 
C                  -1.07240839    1.28243937    0.02074375 
C                  -1.87263393    0.65396624   -1.11889449 
H                  -0.05693866    0.86562436   -0.00650244 
H                  -1.60205949    0.84922693    0.89070546 
O                  -1.86003805   -0.52432998   -1.13297020 
H                  -2.45157130    1.26792245   -1.80134370 


