%nprocshared=2 
%mem=2GB 
# ub3lyp/6-31+g(d) 

tmpdir/M2_ref_40.gjf 

0 1
C                  -1.07240839    1.28243937    0.02074375 
H                  -1.08734547    2.37420030    0.00010213 
H                  -0.05693866    0.86562436   -0.00650244 
H                  -1.60205949    0.84922693    0.89070546 
H                  -1.65168046    0.82749647   -0.80422442 


