%nprocshared=4 
%mem=4GB 
# ub3lyp/6-31+g(d) 

tmpdir/M3_conf_0_1.gjf 

0 1
C                   0.00000000    0.00000000    0.00000000 
C                   1.50350000    0.00000000    0.00000000 
C                  -0.55888000    0.00000000   -1.28656000 
C                  -0.82152000    0.01422000    1.11582000 
C                  -1.93633000    0.03156000   -1.45273000 
C                  -2.20836000    0.02843000    0.94909000 
H                  -0.38879000    0.01577000    2.11308000 
C                  -2.76188000    0.03797000   -0.32744000 
H                  -2.36675000    0.04329000   -2.45092000 
H                  -2.85607000    0.03384000    1.82077000 
H                  -3.84096000    0.05000000   -0.45011000 
H                   1.85048000    0.87612000   -0.58055000 
H                   1.93127000   -0.05592000    1.00328000 
H                   1.84598000   -0.81777000   -0.66104000 
H                   0.20176000    0.02501000   -2.08604000 


