%nprocshared=4 
%mem=4GB 
# ub3lyp/6-31+g(d) 

tmpdir/M3_conf_0_8.gjf 

0 2
C                   0.00000000    0.00000000    0.00000000 
C                   1.52880000    0.00000000    0.00000000 
H                   1.97116000    0.00000000    0.99872000 
H                  -0.38242000   -0.17084000   -0.99320000 
H                  -0.47732000    0.74292000    0.63969000 
H                   1.73923000    0.93544000   -0.54685000 
H                   1.85881000   -0.84113000   -0.62719000 


