%nprocshared=4 
%mem=4GB 
# ub3lyp/6-31+g(d) 

tmpdir/M3_ref_22.gjf 

0 3
C                  -1.07240839    1.28243937    0.02074375 
C                  -1.80408589    0.68398541    1.22253756 
C                  -1.56036485   -0.78282937    1.30257086 
H                  -0.05693866    0.86562436   -0.00650244 
H                  -1.08734547    2.37420030    0.00010213 
H                  -1.65168046    0.82749647   -0.80422442 
H                  -2.80967507    1.06898249    1.39913883 
H                  -1.17868332   -1.17053419    0.33884542 
H                  -1.10668637   -1.20451272    2.20001314 


