%nprocshared=4 
%mem=4GB 
# ub3lyp/6-31+g(d) 

tmpdir/M3_ref_21.gjf 

0 2
C                  -1.80408589    0.68398541    1.22253756 
H                  -2.80967507    1.06898249    1.39913883 
H                  -1.27443479    1.11719785    0.35257585 
H                  -1.62765964   -0.37782127    1.28047255 


