%nprocshared=4 
%mem=4GB 
# 6-31g(d)  wb97x

tmpdir/M1_conf_0_5.gjf 

0 1
C                   8.98900000   29.23500000   36.37200000 
H                   9.66750700   29.19787400   37.26288700 
H                   8.23471079   28.49808405   36.68833818 
H                   9.74514258   28.94338992   35.59935119 
H                   8.74287876   30.31214237   36.40167933 


