%nprocshared=4 
%mem=4GB 
# 6-31g(d)  wb97x

tmpdir/M1_conf_0_13.gjf 

0 1
C                   8.59700000   34.31500000   35.13800000 
H                   7.76441700   34.82803400   34.64707800 
H                   9.44238300   35.01259000   35.16220100 
H                   8.29876100   34.12319400   36.17473600 
H                   8.84094958   33.39349312   34.62331705 


