%nprocshared=4 
%mem=4GB 
# 6-31g(d)  wb97x

tmpdir/M1_conf_0_4.gjf 

1 1
N                   8.33500000   26.84100000   36.84000000 
H                   8.94993700   26.62103800   37.63792200 
H                   7.50621900   26.24320600   36.91475200 
H                   8.85847400   26.59488600   35.99178400 
H                   8.06332667   27.80446006   36.81829414 


