%nprocshared=4 
%mem=4GB 
# 6-31g(d)  wb97x

tmpdir/M1_conf_2_12.gjf 

0 1
C                   8.88945036   33.02960796   34.40584730 
H                   7.98041472   32.44327382   34.23700232 
H                   9.25011468   33.32053273   33.41176116 
H                   9.66545119   32.37890412   34.86119019 
H                   8.63970484   33.93898585   34.99060839 


