%nprocshared=4 
%mem=4GB 
# 6-31g(d)  wb97x

tmpdir/M1_conf_2_1.gjf 

0 1
C                   6.59734997   30.15336180   37.77353344 
C                   7.40058140   31.01613672   37.14499074 
H                   7.14682332   32.07322660   37.16346585 
H                   5.66940855   30.50119476   38.23512342 
H                   6.80810677   29.07855871   37.77890612 
H                   8.21431441   30.73597966   36.49476442 


