%nprocshared=4 
%mem=4GB 
# 6-31g(d)  wb97x

tmpdir/M1_conf_0_12.gjf 

0 1
C                   8.93400000   33.04200000   34.42700000 
H                   8.01745200   32.44839900   34.31005600 
H                   9.26833800   33.25758900   33.40220100 
H                   9.70059527   32.41439084   34.88232429 
H                   8.69005042   33.96350688   34.94168295 


