%nprocshared=4 
%mem=4GB 
# 6-31g(d)  wb97x

tmpdir/M1_conf_2_9.gjf 

0 1
C                   8.52469902   30.62911852   36.24674665 
H                   8.12525290   30.62510007   35.22418742 
H                   8.91086281   29.61136117   36.46009261 
H                   7.71096601   30.90927558   36.89697297 
H                   9.38620734   31.42411599   36.30410709 


