%nprocshared=4 
%mem=4GB 
# 6-31g(d)  wb97x

tmpdir/M1_ref_12.gjf 

0 1
C                   8.69478600   33.33163900   34.69747700 
H                   7.73099700   32.82661800   34.56492300 
H                   8.86705800   33.89625800   33.77135700 
H                   9.49316132   32.56649801   34.77113964 
H                   8.64115908   34.01961012   35.56134011 


