%nprocshared=4 
%mem=4GB 
# 6-31g(d)  wb97x

tmpdir/M1_ref_10.gjf 

0 1
O                   9.66122800   31.43100000   35.94875800 
H                   8.92039186   30.79355608   35.93708156 
H                   9.75494996   32.01042504   35.15925663 


