%nprocshared=2 
%mem=2GB 
# 6-31g(d)  wb97x

tmpdir/M2_conf_1_39.gjf 

0 1
C                   0.00000000    0.00000000    0.00000000 
C                   1.53650000    0.00000000    0.00000000 
H                  -0.35426000    0.00000000   -1.04963000 
H                  -0.29666000   -0.89125000    0.67380000 
H                  -0.32051000    0.93372000    0.48523000 
H                   1.93343000    0.78350000   -0.63855000 
H                   1.83676000    0.08880000    1.12577000 
H                   1.85863000   -0.99626000   -0.35691000 


