%nprocshared=2 
%mem=2GB 
# 6-31g(d)  wb97x

tmpdir/M2_conf_2_83.gjf 

0 1
C                   0.00000000    0.00000000    0.00000000 
C                   1.52740000    0.00000000    0.00000000 
H                   1.89456000    0.00000000    1.03511000 
H                  -0.38324000    0.94296000    0.40046000 
H                  -0.40581000   -0.81157000    0.61401000 
H                  -0.39238000   -0.11264000   -1.01541000 
H                   1.98472000   -0.86472000   -0.52101000 
H                   1.89851000    0.92516000   -0.45584000 


