%nprocshared=2 
%mem=2GB 
# 6-31g(d)  wb97x

tmpdir/M2_conf_2_84.gjf 

0 1
H                   0.00000000    0.00000000    0.00000000 
C                   1.09610000    0.00000000    0.00000000 
H                   1.39846000    0.00000000    1.05586000 
H                   1.45455000    0.94970000   -0.44487000 
H                   1.47043000   -0.90987000   -0.50435000 


