%nprocshared=2 
%mem=2GB 
# 6-31g(d)  wb97x

tmpdir/M2_conf_1_34.gjf 

1 1
C                   0.00000000    0.00000000    0.00000000 
N                   1.50570000    0.00000000    0.00000000 
H                   1.88789000    0.00000000    0.94785000 
H                  -0.32408000    0.95810000    0.44575000 
H                  -0.40565000   -0.13027000   -1.02259000 
H                  -0.29526000   -0.85468000    0.61914000 
H                   1.85364000   -0.85481000   -0.55279000 
H                   1.85051000    0.85383000   -0.44542000 


