%nprocshared=2 
%mem=2GB 
# 6-31g(d)  wb97x

tmpdir/M2_conf_2_85.gjf 

0 1
C                   0.00000000    0.00000000    0.00000000 
O                   1.23330000    0.00000000    0.00000000 
H                  -0.60818000    0.00000000   -0.86120000 
H                  -0.52433000    0.01973000    0.95791000 


