%nprocshared=2 
%mem=2GB 
# 6-31g(d)  wb97x

tmpdir/M2_conf_2_93.gjf 

0 1
C                   0.00000000    0.00000000    0.00000000 
C                   1.50880000    0.00000000    0.00000000 
H                   1.86871000    0.00000000    1.03236000 
H                  -0.46333000   -0.82885000   -0.45812000 
O                  -0.59740000    0.94537000    0.54581000 
H                   1.85293000    0.92980000   -0.46034000 
H                   1.94566000   -0.85031000   -0.52886000 


