%nprocshared=2 
%mem=2GB 
# 6-31g(d)  wb97x

tmpdir/M2_conf_1_61.gjf 

0 1
C                   0.00000000    0.00000000    0.00000000 
H                   1.08100000    0.00000000    0.00000000 
O                  -0.52674000    0.00000000   -1.04685000 
H                  -0.53999000   -0.03830000    0.94134000 


