%nprocshared=2 
%mem=2GB 
# 6-31g(d)  wb97x

tmpdir/M2_conf_2_124.gjf 

0 1
H                   0.00000000    0.00000000    0.00000000 
C                   1.09380000    0.00000000    0.00000000 
H                   1.43798000    0.00000000    1.03887000 
H                   1.48117000   -0.88415000   -0.53905000 
H                   1.42653000    0.93548000   -0.46315000 


