%nprocshared=2 
%mem=2GB 
# 6-31g(d)  wb97x

tmpdir/M2_conf_2_44.gjf 

0 1
N                   0.00000000    0.00000000    0.00000000 
C                   1.47070000    0.00000000    0.00000000 
C                   1.98287000    0.00000000    1.46251000 
H                  -0.64579000   -0.24216000   -0.63750000 
H                  -0.33223000    0.52434000    0.80281000 
H                   1.99163000   -0.83733000   -0.50471000 
H                   1.82556000    0.95014000   -0.42581000 
H                   3.06737000   -0.03704000    1.50329000 
H                   1.50820000    0.95156000    1.94688000 
H                   1.54244000   -0.88551000    1.95806000 


