%nprocshared=2 
%mem=2GB 
# 6-31g(d)  wb97x

tmpdir/M2_conf_1_7.gjf 

0 1
C                   0.00000000    0.00000000    0.00000000 
C                   1.33120000    0.00000000    0.00000000 
H                  -0.60633000    0.00000000   -0.94845000 
H                  -0.58228000    0.03003000    0.91491000 
H                   1.92928000   -0.02009000    0.90613000 
H                   1.81978000   -0.01949000   -0.97081000 


