%nprocshared=2 
%mem=2GB 
# 6-31g(d)  wb97x

tmpdir/M2_conf_0_23.gjf 

1 1
C                   0.00000000    0.00000000    0.00000000 
C                   1.52680000    0.00000000    0.00000000 
N                   2.15813000    0.00000000    1.36695000 
H                  -0.44507000    0.30443000   -0.94140000 
H                  -0.40104000   -0.98306000    0.26875000 
H                  -0.37635000    0.67956000    0.78009000 
H                   1.93317000    0.87226000   -0.54886000 
H                   1.93147000   -0.92182000   -0.43299000 
H                   3.21931000    0.14080000    1.26010000 
H                   1.77036000    0.76392000    1.92586000 
H                   1.93832000   -0.86991000    1.85626000 


