%nprocshared=2 
%mem=2GB 
# 6-31g(d)  wb97x

tmpdir/M2_ref_29.gjf 

1 1
N                   8.47663200   26.95205800   37.43349300 
H                   9.38000900   26.61519700   36.95615300 
H                   8.14793107   27.83356654   36.95767816 
H                   8.66667900   27.14314000   38.42023400 
H                   7.74343800   26.24082400   37.40246000 


