%nprocshared=2 
%mem=2GB 
# 6-31g(d)  wb97x

tmpdir/M2_ref_103.gjf 

0 1
C                   9.79768800   32.27464800   34.79923700 
C                  11.19648900   32.87936300   34.87472300 
H                  11.27855000   33.46882600   35.79478300 
H                   9.68564206   31.58193706   35.74309720 
H                   8.99931268   33.03978899   34.72557436 
H                   9.74144000   31.63216400   33.90019800 
H                  12.00723408   32.12931069   34.84220894 
H                  11.30451700   33.57944500   34.03695400 


