%nprocshared=2 
%mem=2GB 
# 6-31g(d)  wb97x

tmpdir/M2_ref_14.gjf 

0 1
C                   6.53080500   30.20110400   37.31476000 
C                   6.84798700   28.76088500   37.58168900 
C                   8.00718600   28.21101600   36.75394100 
H                   5.58205829   30.57418978   37.79205568 
O                   7.23450825   30.89358339   36.68346476 
H                   5.93539300   28.17384200   37.43344600 
H                   7.07277800   28.66401400   38.65506100 
H                   8.37617572   27.22146116   37.28807635 
H                   8.82636725   28.95082532   36.65997263 
H                   7.68016500   27.90277100   35.75446700 


