%nprocshared=2 
%mem=2GB 
# 6-31g(d)  wb97x

tmpdir/M2_ref_44.gjf 

0 1
N                  10.32099200   28.85905800   35.83311900 
C                   9.13883000   29.23301300   36.62413000 
C                   8.58256400   30.50287600   35.93175700 
H                  10.80188461   28.05905496   35.72937760 
H                  10.76191100   29.70060500   35.47647800 
H                   8.31964875   28.49320368   36.71809837 
H                   9.46581000   29.53373100   37.63045600 
H                   7.67512802   30.85301531   36.41454336 
H                   9.46824422   31.26494934   35.94571635 
H                   8.38576400   30.23445700   34.87677600 


