%nprocshared=2 
%mem=2GB 
# 6-31g(d)  wb97x

tmpdir/M2_ref_113.gjf 

0 1
C                  11.19648900   32.87936300   34.87472300 
C                  12.31647900   31.84321600   34.82980700 
H                  12.30694800   31.21547800   35.72843500 
H                  10.18391654   32.44161828   34.82007974 
H                  11.27855000   33.46882600   35.79478300 
H                  11.30451700   33.57944500   34.03695400 
H                  13.29916500   32.32250700   34.78047800 
H                  12.22210100   31.19842300   33.94444500 


