%nprocshared=2 
%mem=2GB 
# 6-31g(d)  wb97x

tmpdir/M2_ref_62.gjf 

0 1
C                   6.53080500   30.20110400   37.31476000 
C                   7.32900200   30.98657000   36.59869400 
C                   8.58256400   30.50287600   35.93175700 
H                   5.58205829   30.57418978   37.79205568 
H                   6.76040861   29.15854963   37.50798617 
H                   7.01408100   32.01935800   36.47356800 
H                   8.98523717   29.58363995   36.43295612 
H                   9.46824422   31.26494934   35.94571635 
H                   8.38576400   30.23445700   34.87677600 


