%nprocshared=2 
%mem=2GB 
# 6-31g(d)  wb97x

tmpdir/M2_ref_51.gjf 

0 1
C                  11.00779600   27.71650500   35.68495700 
N                  10.32099200   28.85905800   35.83311900 
H                  10.76191100   29.70060500   35.47647800 
O                  10.66992700   26.61097100   36.14557000 
H                  11.92429648   27.78060366   35.09437678 
H                   9.49325517   29.12089718   36.38697620 


