%nprocshared=2 
%mem=2GB 
# 6-31g(d)  wb97x

tmpdir/M2_ref_2.gjf 

0 1
C                   5.22017500   30.71649700   37.97411200 
C                   6.53080500   30.20110400   37.31476000 
C                   4.53966992   29.70126219   38.69615672 
H                   5.01321762   31.70133534   37.81468013 
H                   6.76040861   29.15854963   37.50798617 
C                   7.32900200   30.98657000   36.59869400 


