%nprocshared=2 
%mem=2GB 
# 6-31g(d)  wb97x

tmpdir/M2_ref_50.gjf 

0 1
C                   9.13883000   29.23301300   36.62413000 
N                  10.32099200   28.85905800   35.83311900 
H                  10.76191100   29.70060500   35.47647800 
H                   8.31964875   28.49320368   36.71809837 
H                   8.73615683   30.15224905   36.12293088 
H                   9.46581000   29.53373100   37.63045600 
H                  10.80188461   28.05905496   35.72937760 


