%nprocshared=2 
%mem=2GB 
# 6-31g(d)  wb97x

tmpdir/M2_ref_22.gjf 

0 1
C                   8.00718600   28.21101600   36.75394100 
H                   7.68016500   27.90277100   35.75446700 
H                   7.16805807   28.60905847   37.35313619 
H                   8.37617572   27.22146116   37.28807635 
H                   8.82636725   28.95082532   36.65997263 


