%chk=H-TS-relabel-2.chk
%nprocshared=16
%mem=16GB
# b3lyp/6-31g(d) scrf=smd geom=connectivity

title card

1 1
 C                  2.69417271    1.61748711   -0.61363500
 C                  2.45619471    0.20409911   -0.72626400
 C                  2.33880671   -0.42833789   -2.09834200
 H                  1.76665471    0.20258711   -2.78621900
 H                  3.34196071   -0.56460089   -2.51891500
 H                  1.85275871   -1.40553089   -2.03660700
 H                  2.93495871   -0.43022289    0.01753800
 C                  3.43858471    2.32352011    0.39500100
 C                  3.43054471    3.73794511    0.34791800
 C                  4.20586271    1.67844711    1.39237200
 C                  4.16394871    4.48102911    1.26227500
 H                  2.82890171    4.22819411   -0.41267000
 C                  4.94137471    2.42810111    2.30090000
 H                  4.23711871    0.59522811    1.44663100
 C                  4.92248871    3.82670511    2.23923700
 H                  4.14946371    5.56552811    1.21690500
 H                  5.53731771    1.92644911    3.05704200
 H                  5.50323971    4.40582911    2.95130000
 H                  2.32722071    2.22036011   -1.44166500
 S                  0.53284671    0.67883211    0.00000000
 N                 -3.42014929    2.04874911    1.74552800
 N                 -3.85623829    2.00875011   -0.87169200
 N                 -5.32007829    0.28620511    0.59950800
 C                  0.63197771    1.20809011    1.70522800
 C                  0.45730071    2.56351511    2.01041000
 H                  0.29906771    3.28353111    1.21395700
 C                  0.48447371    2.97504111    3.34413000
 H                  0.35393171    4.02607011    3.58479600
 C                  0.67779371    2.04067311    4.36286000
 H                  0.69579671    2.36407211    5.39954500
 C                  0.84242971    0.68670611    4.05341000
 H                  0.98085971   -0.04152189    4.84703600
 C                  0.81644371    0.26436111    2.72598900
 H                  0.91719171   -0.78976489    2.48496600
 C                 -4.02050629    3.34851011    1.81492100
 C                 -3.74133129    4.29853811    0.83740800
 C                 -4.47540529    5.53890711    0.83861800
 C                 -5.34741429    5.84081811    1.93529400
 C                 -5.48990429    4.89150011    2.98020200
 H                 -6.12783529    5.13111511    3.82710900
 C                 -4.86733429    3.67153211    2.91132200
 H                 -5.01994529    2.94487411    3.70051000
 C                 -2.77679129    2.94238711   -1.03049900
 C                 -2.68920529    4.04151811   -0.18251400
 C                 -1.56034629    4.92884611   -0.30244400
 C                 -0.64308629    4.76558511   -1.39239600
 C                 -0.83074129    3.68056411   -2.28610400
 H                 -0.15225229    3.56594511   -3.12873200
 C                 -1.84172729    2.77352911   -2.08934100
 H                 -1.94233429    1.93390911   -2.76636600
 C                 -4.30887229    1.35003311   -2.11419100
 H                 -4.43084129    2.11329911   -2.88582300
 H                 -5.26910129    0.87141011   -1.93675300
 H                 -3.60262929    0.58399911   -2.45988400
 C                 -2.94947429    1.45710311    3.01181600
 H                 -2.39827929    2.21878811    3.56821100
 H                 -2.28134129    0.62892911    2.77359900
 H                 -3.76608929    1.07777311    3.63959800
 C                 -5.64560829   -1.18066189    0.69698600
 H                 -6.73150629   -1.18523289    0.81717800
 C                 -6.47360229    1.22297811    0.82820300
 H                 -6.06541729    2.23282211    0.75462500
 Se                -2.24723129   -0.54090289    0.34957400
 P                 -3.78514229    0.96035911    0.48079600
 C                 -7.07819929    1.05951911    2.23102000
 H                 -7.79990429    1.86200711    2.41719000
 H                 -7.60932029    0.10791311    2.34002900
 H                 -6.30831529    1.10924811    3.00541400
 C                 -7.56065729    1.10176211   -0.25157400
 H                 -8.01939429    0.10745311   -0.26990100
 H                 -8.35783229    1.82329211   -0.04172600
 H                 -7.17255029    1.32050611   -1.24942900
 C                 -5.06934329   -1.86573289    1.94559700
 H                 -5.44672629   -2.89284189    2.00544400
 H                 -3.97846529   -1.90205589    1.91078000
 H                 -5.37432529   -1.34092189    2.85694000
 C                 -5.35390729   -1.95394789   -0.59666500
 H                 -5.86664429   -1.49694689   -1.44957600
 H                 -4.28317029   -1.99123389   -0.80968800
 H                 -5.71960929   -2.98202989   -0.49630600
 C                  0.43104671    5.68409711   -1.55004200
 C                 -1.30486629    5.97856911    0.62595800
 C                 -0.24006029    6.83679111    0.46150900
 C                  0.62952271    6.70380211   -0.64668100
 C                 -4.39450229    6.48146011   -0.22404500
 C                 -6.05832229    7.06999511    1.95093300
 C                 -5.94243129    7.96542711    0.91298300
 C                 -5.11001829    7.65824411   -0.18831900
 H                  1.09000471    5.57538811   -2.40882600
 H                  1.44658171    7.40696911   -0.78279200
 H                 -0.07151129    7.62880211    1.18574900
 H                 -1.96265929    6.10162911    1.47819200
 H                 -3.77167029    6.25954211   -1.08281500
 H                 -5.03874729    8.35544011   -1.01838000
 H                 -6.49608229    8.89961311    0.92982600
 H                 -6.70779629    7.28397711    2.79615200

 1 2 2.0 8 1.0 19 1.0
 2 3 1.0 7 1.0
 3 4 1.0 5 1.0 6 1.0
 4
 5
 6
 7
 8 9 2.0 10 1.0
 9 11 1.0 12 1.0
 10 13 2.0 14 1.0
 11 15 2.0 16 1.0
 12
 13 15 1.0 17 1.0
 14
 15 18 1.0
 16
 17
 18
 19
 20 24 1.0 63 1.0
 21 35 1.0 55 1.0 64 1.0
 22 43 1.0 51 1.0 64 1.0
 23 59 1.0 61 1.0 64 1.0
 24 25 1.0 33 2.0
 25 26 1.0 27 2.0
 26
 27 28 1.0 29 1.0
 28
 29 30 1.0 31 2.0
 30
 31 32 1.0 33 1.0
 32
 33 34 1.0
 34
 35 36 2.0 41 1.0
 36 37 1.0 44 1.0
 37 38 2.0 85 1.0
 38 39 1.0 86 1.0
 39 40 1.0 41 2.0
 40
 41 42 1.0
 42
 43 44 2.0 49 1.0
 44 45 1.0
 45 46 2.0 82 1.0
 46 47 1.0 81 1.0
 47 48 1.0 49 2.0
 48
 49 50 1.0
 50
 51 52 1.0 53 1.0 54 1.0
 52
 53
 54
 55 56 1.0 57 1.0 58 1.0
 56
 57
 58
 59 60 1.0 73 1.0 77 1.0
 60
 61 62 1.0 65 1.0 69 1.0
 62
 63 64 2.0
 64
 65 66 1.0 67 1.0 68 1.0
 66
 67
 68
 69 70 1.0 71 1.0 72 1.0
 70
 71
 72
 73 74 1.0 75 1.0 76 1.0
 74
 75
 76
 77 78 1.0 79 1.0 80 1.0
 78
 79
 80
 81 84 2.0 89 1.0
 82 83 2.0 92 1.0
 83 84 1.0 91 1.0
 84 90 1.0
 85 88 2.0 93 1.0
 86 87 2.0 96 1.0
 87 88 1.0 95 1.0
 88 94 1.0
 89
 90
 91
 92
 93
 94
 95
 96

