%nprocshared=4 
%mem=4GB 
# 6-31g(d)  wb97x

tmpdir/M1_conf_2_14.gjf 

0 1
C                   4.64861568    1.73956952   13.32939425 
C                   3.79220668    2.01874985   12.26930820 
H                   2.96476835    1.35852080   12.03606987 
C                   4.00936262    3.18025678   11.53790535 
H                   3.33064844    3.45144725   10.74023419 
C                   5.07446104    4.00598818   11.88781353 
H                   5.22180618    4.94239469   11.36554458 
N                   5.91855192    3.74475951   12.89990461 
C                   5.68496416    2.64120943   13.60604575 
H                   6.32965433    2.49586228   14.46907001 
H                   4.45763114    0.91890844   13.98800245 


