%nprocshared=2 
%mem=2GB 
# 6-31g(d)  wb97x

tmpdir/M2_conf_0_136.gjf 

0 1
H                   0.00000000    0.00000000    0.00000000 
C                   1.09800000    0.00000000    0.00000000 
H                   1.42808000    0.00000000    1.04752000 
H                   1.50798000    0.84197000   -0.56089000 
H                   1.42133000   -0.94718000   -0.44027000 


