%nprocshared=2 
%mem=2GB 
# 6-31g(d)  wb97x

tmpdir/M2_conf_2_64.gjf 

0 1
C                   0.00000000    0.00000000    0.00000000 
C                   1.39580000    0.00000000    0.00000000 
H                  -0.55553000    0.00000000   -0.94536000 
C                  -0.67231000   -0.05289000    1.22127000 
H                   1.91759000    0.03910000   -0.95266000 
C                   2.10259000   -0.04404000    1.19526000 


