%nprocshared=2 
%mem=2GB 
# 6-31g(d)  wb97x

tmpdir/M2_conf_0_119.gjf 

0 1
C                   0.00000000    0.00000000    0.00000000 
C                   1.39500000    0.00000000    0.00000000 
C                  -0.73573000    0.00000000   -1.17696000 
H                  -0.52348000   -0.00366000    0.95378000 
H                   1.94821000   -0.00411000    0.94103000 
C                   2.05940000    0.00739000   -1.24533000 


