%nprocshared=2 
%mem=2GB 
# 6-31g(d)  wb97x

tmpdir/M2_conf_0_127.gjf 

0 1
C                   0.00000000    0.00000000    0.00000000 
C                   1.50800000    0.00000000    0.00000000 
C                   2.24277000    0.00000000    1.20517000 
H                  -0.38274000    0.00644000   -1.02420000 
H                  -0.41238000    0.88270000    0.50635000 
H                  -0.41303000   -0.88982000    0.49385000 
H                   2.01762000    0.00136000   -0.86690000 
H                   3.25399000    0.00046000    1.19246000 
H                   1.65435000    0.00069000    2.13704000 


