%nprocshared=2 
%mem=2GB 
# 6-31g(d)  wb97x

tmpdir/M2_conf_1_82.gjf 

0 1
C                   0.00000000    0.00000000    0.00000000 
C                   1.39510000    0.00000000    0.00000000 
C                   2.10477000    0.00000000    1.19379000 
H                  -0.55981000    0.04737000   -0.94164000 
H                  -0.48687000   -0.00603000    0.88523000 
H                   1.93172000    0.00116000   -0.94692000 
H                   3.19097000    0.01250000    1.20142000 
O                   1.50981000   -0.02352000    2.26916000 


