%nprocshared=2 
%mem=2GB 
# 6-31g(d)  wb97x

tmpdir/M2_conf_1_146.gjf 

0 1
C                   0.00000000    0.00000000    0.00000000 
N                   1.33650000    0.00000000    0.00000000 
H                  -0.55172000    0.00000000   -0.92809000 
H                  -0.62795000    0.00581000    0.85296000 
H                   1.76452000   -0.00175000    0.83499000 


