%nprocshared=2 
%mem=2GB 
# 6-31g(d)  wb97x

tmpdir/M2_conf_2_99.gjf 

0 1
N                   0.00000000    0.00000000    0.00000000 
C                   1.41740000    0.00000000    0.00000000 
H                  -0.59206000    0.00000000   -0.75454000 
H                  -0.42339000   -0.20416000    0.89283000 
O                   2.07275000    0.45162000   -0.93714000 
H                   1.87986000   -0.35928000    0.82080000 


