%nprocshared=2 
%mem=2GB 
# 6-31g(d)  wb97x

tmpdir/M2_conf_1_108.gjf 

0 1
C                   0.00000000    0.00000000    0.00000000 
H                   1.07860000    0.00000000    0.00000000 
O                  -0.62587000    0.00000000   -1.05828000 
H                  -0.50320000    0.00031000    0.87722000 


