%nprocshared=2 
%mem=2GB 
# 6-31g(d)  wb97x

tmpdir/M2_conf_2_58.gjf 

0 1
N                   0.00000000    0.00000000    0.00000000 
C                   1.45150000    0.00000000    0.00000000 
H                   1.85434000    0.00000000    1.03217000 
H                  -0.37868000   -0.89069000    0.32102000 
H                  -0.38025000    0.76231000    0.56243000 
H                   1.78311000   -0.93771000   -0.46630000 
H                   1.88047000    0.83698000   -0.56370000 


