%nprocshared=2 
%mem=2GB 
# 6-31g(d)  wb97x

tmpdir/M2_ref_150.gjf 

0 1
N                   3.26303200    0.07820800   14.20875900 
C                   3.07471600   -1.07368000   14.84765900 
N                   4.01332800   -1.78954000   15.49762000 
H                   4.13435769    0.42641059   14.20200498 
H                   2.09592558   -1.52742686   14.89004464 
O                   5.07977315   -1.34745124   15.47206368 


