%nprocshared=2 
%mem=2GB 
# 6-31g(d)  wb97x

tmpdir/M2_ref_113.gjf 

0 1
C                  -1.96331300   -0.65879100   13.42037000 
H                  -2.95635600   -0.42654400   13.04124300 
H                  -1.17914539   -0.06505174   13.19849532 
O                  -1.78437316   -1.65046089   14.11454650 


