%nprocshared=2 
%mem=2GB 
# 6-31g(d)  wb97x

tmpdir/M2_ref_158.gjf 

0 1
N                   4.01332800   -1.78954000   15.49762000 
C                   5.23707900   -1.28224100   15.46829400 
C                   5.55768600   -0.09244400   14.82460900 
H                   3.35612220   -1.28830270   15.04252446 
H                   6.00504800   -1.85936600   15.98209700 
H                   6.57685600    0.27434900   14.79763300 
O                   4.63177849    0.49643141   14.27316172 


