%nprocshared=2 
%mem=2GB 
# 6-31g(d)  wb97x

tmpdir/M2_ref_177.gjf 

0 1
C                   4.69497800    1.86036600   13.47925300 
C                   3.78847300    2.25712900   12.49560900 
C                   3.98992200    3.46811100   11.85054700 
H                   4.55922693    0.93027383   14.00034958 
H                   5.46382673    2.48308314   13.68810425 
H                   2.93967000    1.63118600   12.24037500 
H                   3.29588400    3.80352400   11.08542800 
O                   4.96035376    4.14783782   12.16740508 


