%nprocshared=2 
%mem=2GB 
# 6-31g(d)  wb97x

tmpdir/M2_ref_89.gjf 

0 1
C                  -0.87166400    3.18958200   10.82761000 
C                  -0.26800100    2.01851300   11.55020300 
H                  -1.67672440    3.70008885   11.16524056 
C                  -0.25734100    3.59727300    9.64421000 
C                   1.06935373    1.69175727   11.39165774 
H                  -0.95304338    1.46667590   12.17093475 


