%nprocshared=2 
%mem=2GB 
# 6-31g(d)  wb97x

tmpdir/M2_ref_28.gjf 

0 1
N                  -6.45102400    7.14532300    7.61677200 
C                  -7.89072100    7.27662400    7.69659500 
H                  -8.36712600    6.51853500    7.06561000 
H                  -5.98097662    7.86293970    8.16449695 
H                  -6.14393161    6.22185213    7.91517715 
H                  -8.27584800    7.15840900    8.72803300 
H                  -8.19355100    8.26357400    7.33047400 


