%nprocshared=2 
%mem=2GB 
# 6-31g(d)  wb97x

tmpdir/M2_ref_171.gjf 

0 1
C                   4.50744700    0.57550600   14.19911300 
C                   4.69497800    1.86036600   13.47925300 
C                   3.78847300    2.25712900   12.49560900 
H                   3.52932312    0.18462430   14.20669486 
O                   5.43335451   -0.01336941   14.75056028 
H                   5.46382673    2.48308314   13.68810425 
H                   2.93967000    1.63118600   12.24037500 
H                   3.93429911    3.13374192   12.02865765 


