%nprocshared=2 
%mem=2GB 
# 6-31g(d)  wb97x

tmpdir/M2_ref_74.gjf 

0 1
C                  -1.98380100    3.89481300   11.29402400 
H                  -2.45010400    3.62849400   12.24066100 
O                  -2.41960495    4.85125528   10.66508708 
H                  -1.17874060    3.38430615   10.95639344 


