%nprocshared=2 
%mem=2GB 
# 6-31g(d)  wb97x

tmpdir/M2_ref_188.gjf 

0 1
H                   5.28206000    5.19319200   11.72052500 
C                   5.09066400    4.23911200   12.20995300 
N                   5.96520700    3.88438100   13.15447300 
O                   4.12023224    3.55938518   11.89309492 
O                   5.78384306    2.87020404   13.68893174 


