%nprocshared=2 
%mem=2GB 
# 6-31g(d)  wb97x

tmpdir/M2_ref_116.gjf 

0 1
C                  -0.88003800    0.16142000   13.11386500 
C                  -1.96331300   -0.65879100   13.42037000 
C                  -1.76034500   -1.78362300   14.20776100 
H                  -1.08401257    1.06927843   12.50554122 
O                   0.24237642   -0.10305158   13.54037319 
H                  -2.95635600   -0.42654400   13.04124300 
H                  -2.60630700   -2.42488700   14.44604800 
H                  -0.85229299   -2.02812635   14.56409171 


