%nprocshared=2 
%mem=2GB 
# 6-31g(d)  wb97x

tmpdir/M2_ref_71.gjf 

0 1
C                  -1.87580800    5.37814200    9.38628800 
C                  -2.47812500    4.97968700   10.58063300 
H                  -3.34291200    5.53223700   10.93853000 
H                  -2.24636886    6.25550197    8.84298405 
O                  -0.89551184    4.75600234    8.98035320 
O                  -2.04232105    4.02324472   11.20956992 


