%nprocshared=2 
%mem=2GB 
# 6-31g(d)  wb97x

tmpdir/M2_ref_127.gjf 

0 1
C                  -0.32443200   -3.35519000   15.54789100 
C                  -0.50593200   -2.12138800   14.70000800 
C                   0.58085100   -1.27786900   14.38414800 
H                  -1.27948400   -3.86960500   15.68462200 
H                   0.06138900   -3.11552700   16.54759700 
H                   0.36702600   -4.07412800   15.08831500 
H                  -1.41398401   -1.87688465   14.34367729 
H                   0.44493706   -0.45314278   13.81480949 
H                   1.56226591   -1.57112106   14.79085839 


