%nprocshared=2 
%mem=2GB 
# 6-31g(d)  wb97x

tmpdir/M2_ref_161.gjf 

0 1
C                   5.55768600   -0.09244400   14.82460900 
C                   4.50744700    0.57550600   14.19911300 
H                   5.32560308   -0.95372139   15.29056356 
H                   6.57685600    0.27434900   14.79763300 
H                   3.52932312    0.18462430   14.20669486 
H                   4.64319807    1.50559817   13.67801642 


