%nprocshared=4 
%mem=4GB 
# 6-31g(d)  wb97x

tmpdir/M3_conf_1_79.gjf 

0 1
C                   0.00000000    0.00000000    0.00000000 
C                   1.50800000    0.00000000    0.00000000 
H                   1.89966000    0.00000000    1.02085000 
C                  -0.70403000   -0.00564000    1.19758000 
C                  -0.73688000    0.00756000   -1.20386000 
C                  -2.09150000   -0.01096000    1.23534000 
H                  -0.14709000   -0.00955000    2.13221000 
C                  -2.13383000    0.00807000   -1.18387000 
C                  -2.80452000   -0.00768000    0.03878000 
H                  -2.61412000   -0.02581000    2.18949000 
H                  -2.68329000    0.02090000   -2.11065000 
H                   1.92038000    0.88586000   -0.50079000 
H                   1.92103000   -0.88670000   -0.49943000 
H                  -0.15008000    0.01412000   -2.13674000 
H                  -3.91388000    0.01737000    0.10636000 


