%nprocshared=4 
%mem=4GB 
# 6-31g(d)  wb97x

tmpdir/M3_frag_conf_0_3.gjf 

0 1
C                   4.61700000    1.86900000   13.44700000 
C                   3.62900000    2.37000000   12.60100000 
H                   2.64928900    1.91648000   12.55266800 
C                   3.93800000    3.46500000   11.77800000 
H                   3.17544900    3.85650900   11.10978600 
C                   5.22000000    4.01300000   11.82000000 
H                   5.51743800    4.84909700   11.19127500 
N                   6.15300000    3.52800000   12.65800000 
C                   5.87000000    2.49200000   13.47000000 
H                   6.68354400    2.18708800   14.11734100 
H                   4.42806575    1.07851649   14.06085533 


