%nprocshared=4 
%mem=4GB 
# 6-31g(d)  wb97x

tmpdir/M3_frag_conf_1_1.gjf 

0 1
C                  -0.88145634    0.28632996   12.95552717 
C                   0.31516038    0.07012944   13.64021681 
H                   1.12613646    0.77384452   13.53794556 
C                  -1.94815914   -0.59859219   13.08052434 
H                  -2.86276578   -0.44286678   12.51264685 
C                  -1.81859963   -1.71011445   13.91046417 
H                  -2.65127215   -2.40105560   13.99551169 
C                  -0.63790801   -1.97162279   14.59755833 
C                   0.44482428   -1.06885977   14.44977602 
H                  -1.05426166    1.20089458   12.33298605 
H                  -0.54669129   -2.86272470   15.21747535 
H                   1.35721729   -1.31284320   15.02194383 


