%nprocshared=4 
%mem=4GB 
# 6-31g(d)  wb97x

tmpdir/M3_frag_conf_1_3.gjf 

0 1
C                   4.66129608    1.76635318   13.33795660 
C                   3.84134755    2.07997406   12.25596679 
H                   2.98994650    1.45450116   12.01323319 
C                   4.13962602    3.22443353   11.51616318 
H                   3.52487135    3.52270432   10.67568384 
C                   5.23182154    4.00547044   11.88830167 
H                   5.49399259    4.89597587   11.32552287 
N                   6.02079091    3.72138334   12.93367587 
C                   5.71393315    2.63895777   13.64406150 
H                   6.32803716    2.46365106   14.52163136 
H                   4.46410161    0.94042011   13.99068581 


