%nprocshared=4 
%mem=4GB 
# 6-31g(d)  wb97x

tmpdir/M3_ref_76.gjf 

0 1
C                  -0.32443200   -3.35519000   15.54789100 
H                  -1.27948400   -3.86960500   15.68462200 
H                  -0.45581731   -2.46205801   14.93412037 
H                   0.06138900   -3.11552700   16.54759700 
H                   0.36702600   -4.07412800   15.08831500 


