%mem=24000MB
%nprocshared=12
# hf/3-21g geom=connectivity

react

-1 1
 C                 -1.20238400    0.00001300    0.00000000
 H                 -1.50281200   -0.27124700    0.99420100
 H                 -1.50240900    0.99696500   -0.26221700
 H                 -1.50295700   -0.72555500   -0.73198400
 Cl                 0.68955800   -0.00001400    0.00000000
 Cl               -20.00000000    0.00000000    0.00000000

 1 2 1.0 3 1.0 4 1.0 5 1.0
 2
 3
 4
 5
 6

