%chk=TS-4F.chk
# b3lyp/6-31g(d) geom=connectivity scan nosymmetry

title card

0 1
 C              
 C                  1            B1
 H                  2            B2    1            A1
 C                  1            B3    2            A2    3            D1    0
 H                  4            B4    1            A3    2            D2    0
 H                  4            B5    1            A4    2            D3    0
 N                  1            B6    2            A5    4            D4    0
 O                  7            B7    1            A6    2            D5    0
 H                  8            B8    7            A7    1            D6    0
 H                  7            B9    1            A8    2            D7    0
 C                  7           B10    1            A9    2            D8    0
 H                 11           B11    7           A10    1            D9    0
 H                 11           B12    7           A11    1           D10    0
 C                 11           B13    7           A12    1           D11    0
 H                 14           B14   11           A13    7           D12    0
 H                 14           B15   11           A14    7           D13    0

   B1             1.25812295
   B2             1.07747469
   B3             1.48819055
   B4             1.09692373
   B5             1.09735812
   B6             2.00147692
   B7             1.36028830 10 -0.01
   B8             1.09162304 10 0.01
   B9             1.02028219
   B10            1.45850462
   B11            1.09276011
   B12            1.09735810
   B13            1.53960009
   B14            1.09682639
   B15            1.09412087
   A1           138.02343011
   A2           159.71394875
   A3           108.28196280
   A4           110.55840007
   A5           102.49791444
   A6           101.97829868
   A7            97.32041903
   A8           113.93781729
   A9            96.34216254
   A10          105.89625753
   A11          113.24329926
   A12          104.40276045
   A13          109.27653137
   A14          110.69379485
   D1           -20.40900249
   D2           -16.42147180
   D3            99.54231570
   D4          -154.12837698
   D5             9.86356459
   D6            -8.65579630
   D7          -108.90032478
   D8           131.50034216
   D9           -72.02879369
   D10          168.91987816
   D11           46.20094548
   D12           78.42465010
   D13         -164.52218707

 1 2 3.0 4 1.0
 2 3 1.0
 3
 4 5 1.0 6 1.0 14 1.0
 5
 6
 7 8 1.0 10 1.0 11 1.0
 8 9 1.0
 9
 10
 11 12 1.0 13 1.0 14 1.0
 12
 13
 14 15 1.0 16 1.0
 15
 16

