%nprocshared=4 
%mem=4GB 
# b3lyp/6-31g(d) 

tmpdir/M3_conf_0_35.gjf 

0 1
C                  -2.58198000   -0.04580000    0.06552000 
C                  -1.35441000    0.71470000    0.30300000 
C                  -0.09371000    0.00656000   -0.23322000 
C                  -0.43897000   -1.20947000   -1.09129000 
C                  -3.58664000   -0.68445000   -0.13711000 
H                  -4.47463000   -1.24717000   -0.31445000 
H                  -1.24209000    0.89544000    1.38155000 
H                  -1.44664000    1.70669000   -0.16249000 
H                   0.53956000   -0.30823000    0.60422000 
H                   0.48997000    0.71234000   -0.83373000 
H                   0.51332000   -1.72959000   -1.48024000 
H                  -0.96851000   -1.96210000   -0.49005000 
H                  -1.10490000   -0.91228000   -1.91850000 


