%nprocshared=4 
%mem=4GB 
# b3lyp/6-31g(d) 

tmpdir/M3_conf_0_16.gjf 

0 1
O                   0.00000000    0.00000000    0.00000000 
H                   1.09160000    0.00000000    0.00000000 
H                  -0.23144000    0.00000000   -1.06863000 


