%nprocshared=4 
%mem=4GB 
# b3lyp/6-31g(d) 

tmpdir/M3_conf_0_6.gjf 

0 1
C                   0.00000000    0.00000000    0.00000000 
C                   1.46340000    0.00000000    0.00000000 
C                   2.02034000    0.00000000    1.43812000 
C                  -1.22945000    0.00024000   -0.01994000 
H                  -2.29544000    0.00114000   -0.02639000 
H                   1.82655000    0.87867000   -0.55183000 
H                   1.82593000   -0.87748000   -0.55472000 
H                   3.12618000    0.00644000    1.45589000 
H                   1.65400000   -0.88079000    1.97797000 
H                   1.65021000    0.88327000    1.96945000 


