%nprocshared=4 
%mem=4GB 
# b3lyp/6-31g(d) 

tmpdir/M3_conf_0_8.gjf 

0 1
H                   0.00000000    0.00000000    0.00000000 
C                   1.09930000    0.00000000    0.00000000 
C                   1.64065000    0.00000000    1.44406000 
H                   1.44927000   -0.82662000   -0.56262000 
H                   1.40239000    0.93215000   -0.49835000 
H                   1.27247000    0.86528000    2.02628000 
H                   2.73658000    0.01242000    1.42955000 
H                   1.33334000   -0.92381000    1.94565000 


