%nprocshared=4 
%mem=4GB 
# b3lyp/6-31g(d) 

tmpdir/M3_conf_0_4.gjf 

0 1
C                   0.00000000    0.00000000    0.00000000 
C                   1.46340000    0.00000000    0.00000000 
H                   1.80821000    0.00000000    1.04382000 
C                  -1.21859000   -0.01317000   -0.02262000 
H                  -2.28467000   -0.02348000   -0.03525000 
H                   1.82593000    0.93652000   -0.44790000 
H                   1.89961000   -0.87026000   -0.54655000 


